 vasp.5.4.4.18Apr17-6-g9f103f2a35 (build Jul 11 2019 11:52:51) complex

 executed on             LinuxIFC date 2023.11.29  16:42:04

 INCAR:
 POTCAR:    PAW_PBE V 08Apr2002
 POTCAR:    PAW_PBE Fe 06Sep2000
 POTCAR:    PAW_PBE V 08Apr2002
   VRHFIN =V: p6 d4 s1

   TITEL  = PAW_PBE V 08Apr2002
   POMASS =   50.941; ZVAL   =    5.000    mass and valenz
   ENMAX  =  192.543; ENMIN  =  144.408 eV

 POTCAR:    PAW_PBE Fe 06Sep2000
   VRHFIN =Fe:  d7 s1

   TITEL  = PAW_PBE Fe 06Sep2000
   POMASS =   55.847; ZVAL   =    8.000    mass and valenz
   ENMAX  =  267.882; ENMIN  =  200.911 eV

  PAW_PBE V 08Apr2002                   :
  PAW_PBE Fe 06Sep2000                  :

 POSCAR: EA0     6.394  9.819  4.199 90.03 90.00
  positions in direct lattice
 exchange correlation table for  LEXCH =        8
   RHO(1)=    0.500       N(1)  =     2000
   RHO(2)=  100.500       N(2)  =     4000

 ion  position               nearest neighbor table
   1  0.739  0.236  0.840-   8 2.54   2 2.55   6 2.55  20 2.56  20 2.57   4 2.60  10 2.60  10 2.61
                            17 2.90  17 2.90  13 2.93  13 2.93   9 2.95   5 3.06
   2  0.136  0.336  0.841-   6 2.52   4 2.54   1 2.55   9 2.55  15 2.56  17 2.56  15 2.57  17 2.57
                            20 2.96  20 2.96  13 2.97  13 2.98   7 2.98   8 3.07
   3  0.120  0.830  0.841-   8 2.50  16 2.51  18 2.52  16 2.53   7 2.55  12 2.59  12 2.60   5 2.65
                            19 2.91  19 2.92   9 2.94  14 3.00  14 3.01   4 3.04
   4  0.334  0.134  0.839-   2 2.54   5 2.59  12 2.59  12 2.59  13 2.60   1 2.60  13 2.60   8 2.62
                            10 2.96  10 2.96  17 2.97  17 2.97   6 2.97   3 3.04
   5  0.535  0.929  0.840-  18 2.50   8 2.51  14 2.52  14 2.54  10 2.59   4 2.59  10 2.59   3 2.65
                            19 2.91  19 2.91   7 2.92  12 3.00  12 3.00   1 3.06
   6  0.530  0.433  0.842-   2 2.52   7 2.53  13 2.54   9 2.54   1 2.55  13 2.56  11 2.61  11 2.62
                            18 2.94  20 2.95  20 2.95  15 2.97  15 2.97   4 2.97
   7  0.336  0.636  0.843-  18 2.51   6 2.53   3 2.55  14 2.58  15 2.59  15 2.59  14 2.59   9 2.62
                             5 2.92  11 2.95  11 2.95   2 2.98  16 2.99  16 3.00
   8  0.927  0.029  0.839-   3 2.50   5 2.51  19 2.52  19 2.53   1 2.54   4 2.62  17 2.64  17 2.64
                            10 2.91  10 2.91  12 2.93  12 2.93  18 2.98   2 3.07
   9  0.927  0.533  0.843-  18 2.49   6 2.54   2 2.55  20 2.56  20 2.57  16 2.61  16 2.61   7 2.62
                            11 2.91  11 2.91  15 2.94  15 2.94   3 2.94   1 2.95
  10  0.635  0.081  0.339-  19 2.46  13 2.55  17 2.56   5 2.59   5 2.59   1 2.60   1 2.61  12 2.62
                             8 2.91   8 2.91  14 2.92   4 2.96   4 2.96  20 3.02
  11  0.638  0.589  0.343-  16 2.50  18 2.51  14 2.52  18 2.52  20 2.54   6 2.61   6 2.62  15 2.64
                             9 2.91   9 2.91   7 2.95   7 2.95  19 2.98  13 3.00
  12  0.226  0.982  0.339-  19 2.51  14 2.54  17 2.57   3 2.59   4 2.59   4 2.59   3 2.60  10 2.62
                            16 2.91   8 2.93   8 2.93   5 3.00   5 3.00  13 3.05
  13  0.443  0.287  0.340-  20 2.50   6 2.54  10 2.55   6 2.56  15 2.59   4 2.60   4 2.60  17 2.63
                             1 2.93   1 2.93   2 2.97   2 2.98  11 3.00  12 3.05
  14  0.438  0.788  0.342-  11 2.52   5 2.52   5 2.54  19 2.54  12 2.54   7 2.58   7 2.59  16 2.62
                            10 2.92  18 2.93  18 2.93   3 3.00   3 3.01  15 3.03
  15  0.226  0.485  0.343-  20 2.53   2 2.56   2 2.57  16 2.57   7 2.59   7 2.59  13 2.59  11 2.64
                             9 2.94   9 2.94  17 2.94   6 2.97   6 2.97  14 3.03
  16  0.027  0.690  0.343-  19 2.49  11 2.50   3 2.51   3 2.53  15 2.57   9 2.61   9 2.61  14 2.62
                            18 2.91  12 2.91  18 2.91   7 2.99   7 3.00  20 3.02
  17  0.031  0.189  0.339-  20 2.50  10 2.56   2 2.56   2 2.57  12 2.57  13 2.63   8 2.64   8 2.64
                             1 2.90   1 2.90  15 2.94   4 2.97   4 2.97  19 2.99
  18  0.729  0.729  0.842-   9 2.49   5 2.50   7 2.51  11 2.51   3 2.52  11 2.52  19 2.63  19 2.64
                            16 2.91  16 2.91  14 2.93  14 2.93   6 2.94   8 2.98
  19  0.834  0.889  0.340-  10 2.46  16 2.49  12 2.51   8 2.52   8 2.53  14 2.54  18 2.63  18 2.64
                             5 2.91   3 2.91   5 2.91   3 2.92  11 2.98  17 2.99
  20  0.832  0.385  0.341-  17 2.50  13 2.50  15 2.53  11 2.54   9 2.56   1 2.56   9 2.57   1 2.57
                             6 2.95   6 2.95   2 2.96   2 2.96  10 3.02  16 3.02

  LATTYP: Found a triclinic cell.
 ALAT       =    16.8497879513
 B/A-ratio  =     0.3794698793
 C/A-ratio  =     0.2492172340
 COS(alpha) =     0.0000776328
 COS(beta)  =     0.4981963228
 COS(gamma) =     0.6511021404

  Lattice vectors:

 A1 = ( -10.9709330000,  -9.6446330000,  -8.3985140000)
 A2 = (  -6.3939870000,   0.0000000000,   0.0000000000)
 A3 = (  -0.0003260000,   0.0021170000,  -4.1992570000)

Analysis of symmetry for initial positions (statically):
 Subroutine PRICEL returns:
 Original cell was already a primitive cell.

 Routine SETGRP: Setting up the symmetry group for a
 triclinic supercell.

 Subroutine GETGRP returns: Found  1 space group operations
 (whereof  1 operations were pure point group operations)
 out of a pool of  2 trial point group operations.

The static configuration has the point symmetry C_1 .

Analysis of symmetry for dynamics (positions and initial velocities):
 Subroutine PRICEL returns:
 Original cell was already a primitive cell.

 Routine SETGRP: Setting up the symmetry group for a
 triclinic supercell.

 Subroutine GETGRP returns: Found  1 space group operations
 (whereof  1 operations were pure point group operations)
 out of a pool of  2 trial point group operations.

The dynamic configuration has the point symmetry C_1 .

 Subroutine INISYM returns: Found  1 space group operations
 (whereof  1 operations are pure point group operations),
 and found     1 'primitive' translations

 KPOINTS: EA

Automatic generation of k-mesh.
Space group operators:
 irot       det(A)        alpha          n_x          n_y          n_z        tau_x        tau_y        tau_z
    1     1.000000     0.000001     1.000000     0.000000     0.000000     0.000000     0.000000     0.000000

 Subroutine IBZKPT returns following result:

 Found      8 irreducible k-points:

 Following reciprocal coordinates:
            Coordinates               Weight
  0.000000  0.000000  0.000000      1.000000
  0.500000  0.000000  0.000000      1.000000
  0.000000  0.500000  0.000000      1.000000
  0.500000  0.500000  0.000000      1.000000
  0.000000  0.000000  0.333333      2.000000
  0.500000  0.000000  0.333333      2.000000
  0.000000  0.500000  0.333333      2.000000
  0.500000  0.500000  0.333333      2.000000

 Following cartesian coordinates:
            Coordinates               Weight
  0.000000  0.000000  0.000000      1.000000
  0.078198  0.014731  0.000001      1.000000
  0.000000  0.051820  0.000026      1.000000
  0.078198  0.066551  0.000027      1.000000
  0.000000  0.000000  0.079379      2.000000
  0.078198  0.014731  0.079380      2.000000
  0.000000  0.051820  0.079405      2.000000
  0.078198  0.066551  0.079407      2.000000

 SYSTEM =  unknown system
 POSCAR =  EA0     6.394  9.819  4.199 90.03 90.00

 Startparameter for this run:
   NWRITE =      2    write-flag & timer
   PREC   = normal    normal or accurate (medium, high low for compatibility)
   ISTART =      0    job   : 0-new  1-cont  2-samecut
   ICHARG =      2    charge: 1-file 2-atom 10-const
   ISPIN  =      1    spin polarized calculation?
   LNONCOLLINEAR =      F non collinear calculations
   LSORBIT =      F    spin-orbit coupling
   INIWAV =      1    electr: 0-lowe 1-rand  2-diag
   LASPH  =      F    aspherical Exc in radial PAW
   METAGGA=      F    non-selfconsistent MetaGGA calc.

 Electronic Relaxation 1
   ENCUT  =  267.9 eV  19.69 Ry    4.44 a.u.   8.53 13.10  5.60*2*pi/ulx,y,z
   ENINI  =  267.9     initial cutoff
   ENAUG  =  511.4 eV  augmentation charge cutoff
   NELM   =     60;   NELMIN=  2; NELMDL= -5     # of ELM steps
   EDIFF  = 0.1E-04   stopping-criterion for ELM
   LREAL  =      F    real-space projection
   NLSPLINE    = F    spline interpolate recip. space projectors
   LCOMPAT=      F    compatible to vasp.4.4
   GGA_COMPAT  = T    GGA compatible to vasp.4.4-vasp.4.6
   LMAXPAW     = -100 max onsite density
   LMAXMIX     =    2 max onsite mixed and CHGCAR
   VOSKOWN=      0    Vosko Wilk Nusair interpolation
   ROPT   =    0.00000   0.00000
 Ionic relaxation
   EDIFFG = -.1E-01   stopping-criterion for IOM
   NSW    =    500    number of steps for IOM
   NBLOCK =      1;   KBLOCK =    500    inner block; outer block
   IBRION =      2    ionic relax: 0-MD 1-quasi-New 2-CG
   NFREE  =      1    steps in history (QN), initial steepest desc. (CG)
   ISIF   =      3    stress and relaxation
   IWAVPR =     11    prediction:  0-non 1-charg 2-wave 3-comb
   ISYM   =      2    0-nonsym 1-usesym 2-fastsym
   LCORR  =      T    Harris-Foulkes like correction to forces

   POTIM  = 0.5000    time-step for ionic-motion
   TEIN   =    0.0    initial temperature
   TEBEG  =    0.0;   TEEND  =   0.0 temperature during run
   SMASS  =  -3.00    Nose mass-parameter (am)
   estimated Nose-frequenzy (Omega)   =  0.10E-29 period in steps =****** mass=  -0.934E-27a.u.
   SCALEE = 1.0000    scale energy and forces
   NPACO  =    256;   APACO  = 16.0  distance and # of slots for P.C.
   PSTRESS=    0.0 pullay stress

  Mass of Ions in am
   POMASS =  50.94 55.85
  Ionic Valenz
   ZVAL   =   5.00  8.00
  Atomic Wigner-Seitz radii
  virtual crystal weights
   VCA    =   1.00  1.00
   NELECT =     109.0000    total number of electrons
   NUPDOWN=      -1.0000    fix difference up-down

 DOS related values:
   EMIN   =  10.00;   EMAX   =-10.00  energy-range for DOS
   EFERMI =   0.00
   ISMEAR =     0;   SIGMA  =   0.10  broadening in eV -4-tet -1-fermi 0-gaus

 Electronic relaxation 2 (details)
   IALGO  =     38    algorithm
   LDIAG  =      T    sub-space diagonalisation (order eigenvalues)
   LSUBROT=      F    optimize rotation matrix (better conditioning)
   TURBO    =      0    0=normal 1=particle mesh
   IRESTART =      0    0=no restart 2=restart with 2 vectors
   NREBOOT  =      0    no. of reboots
   NMIN     =      0    reboot dimension
   EREF     =   0.00    reference energy to select bands
   IMIX   =      4    mixing-type and parameters
     AMIX     =   0.40;   BMIX     =  1.00
     AMIX_MAG =   1.60;   BMIX_MAG =  1.00
     AMIN     =   0.10
     WC   =   100.;   INIMIX=   1;  MIXPRE=   1;  MAXMIX= -45

 Intra band minimization:
   WEIMIN = 0.0010     energy-eigenvalue tresh-hold
   EBREAK =  0.37E-07  absolut break condition
   DEPER  =   0.30     relativ break condition

   TIME   =   0.40     timestep for ELM

  volume/ion in A,a.u.               =      12.95        87.42
  Fermi-wavevector in a.u.,A,eV,Ry     =   1.226714  2.318154 20.474433  1.504828
  Thomas-Fermi vector in A             =   2.361705

 Write flags
   LWAVE        =      F    write WAVECAR
[...]
   -.569E+01 0.278E+02 0.245E-01   0.567E+01 -.277E+02 -.350E-01   0.209E-01 -.906E-01 0.111E-01   0.503E-02 0.627E-02 -.296E-04
   -.265E-01 0.354E-01 -.111E-01   0.675E-13 -.178E-13 0.250E-14   0.163E-01 -.413E-01 0.105E-01   0.332E-02 0.602E-03 0.221E-04

 POSITION                                       TOTAL-FORCE (eV/Angst)
      4.29660      2.27391      3.52543        -0.000807      0.011724      0.001696
      0.25950      3.24330      3.53074         0.015385     -0.000315     -0.000675
     -0.73826      8.00599      3.53074        -0.004857     -0.027884     -0.000282
      1.89099      1.29172      3.52216         0.017234      0.007372      0.003712
      1.73571      8.95931      3.52552        -0.001658     -0.007303      0.001253
      2.60260      4.18023      3.53665        -0.023957      0.005364     -0.003443
      0.99112      6.13637      3.54069        -0.000303      0.006016     -0.006481
      5.87178      0.27781      3.52299        -0.007873      0.005281      0.001958
      4.95514      5.14560      3.53931        -0.004857      0.003440     -0.002729
      3.91424      0.78128      1.42317         0.009450     -0.033299      0.003428
      3.00765      5.68459      1.44057         0.002493      0.011496     -0.005140
     -0.33984      9.47750      1.42343         0.019335     -0.021687      0.002933
      2.31163      2.76621      1.42812         0.013890      0.037525     -0.000794
      1.37093      7.59949      1.43417        -0.013708      0.018636     -0.001036
      0.56344      4.68161      1.43946        -0.007730     -0.023219     -0.003398
     -1.07995      6.65953      1.43882         0.009787      0.020856     -0.006076
     -0.14316      1.82646      1.42382        -0.025519      0.006715      0.004446
      3.33355      7.03291      3.53446        -0.003623     -0.052884      0.003642
      3.71610      8.57508      1.42854         0.002695      0.049922      0.006453
      4.62189      3.71744      1.43357         0.004622     -0.017753      0.000532
    total drift:                               -0.006861     -0.005281     -0.000611

  FREE ENERGIE OF THE ION-ELECTRON SYSTEM (eV)
  free  energy   TOTEN  =      -178.56955648 eV

  energy  without entropy=     -178.45247361  energy(sigma->0) =     -178.51101504

[...]

 d Force =-0.1841443E-03[-0.105E-02, 0.679E-03]  d Energy =-0.1150514E+00 0.115E+00
 d Force = 0.7001678E-01[ 0.685E-01, 0.715E-01]  d Ewald  = 0.1177076E+03-0.118E+03

 Steepest descent step on ions:
 trial-energy change:    0.115051  1 .order    0.133201   -0.591063    0.857466
  (g-gl).g = 0.591E+00      g.g   = 0.591E+00  gl.gl    = 0.000E+00
 g(Force)  = 0.694E-03   g(Stress)= 0.590E+00 ortho     = 0.000E+00
 gamma     =   0.00000
 trial     =   1.00000
 opt step  =   0.42643  (harmonic =   0.40804) maximal distance =0.00102700
 next E    =  -178.696988   (d E  =  -0.12743)

[...]

 d Force = 0.3095618E-03[-0.280E-05, 0.622E-03]  d Energy = 0.2419237E+00-0.242E+00
 d Force =-0.4122472E-01[-0.418E-01,-0.407E-01]  d Ewald  =-0.6814424E+02 0.681E+02

[...]

 d Force =-0.1900068E-07[-0.213E-07,-0.167E-07]  d Energy =-0.1567126E-04 0.157E-04
 d Force =-0.2499617E-03[-0.250E-03,-0.250E-03]  d Ewald  =-0.4076728E+00 0.407E+00

[...]

 d Force = 0.7309369E-08[ 0.617E-08, 0.845E-08]  d Energy = 0.9172461E-05-0.917E-05
 d Force = 0.9932884E-04[ 0.993E-04, 0.993E-04]  d Ewald  = 0.1620019E+00-0.162E+00

[...]

 Conjugate gradient step on ions:
 trial-energy change:   -0.002999  1 .order   -0.003024   -0.003853   -0.002195
  (g-gl).g = 0.464E-02      g.g   = 0.435E-02  gl.gl    = 0.591E+00
 g(Force)  = 0.139E-03   g(Stress)= 0.422E-02 ortho     =-0.286E-03
 gamma     =   0.00785
 trial     =   0.88521
 opt step  =   2.05759  (harmonic =   2.05759) maximal distance =0.00180577
 next E    =  -178.700906   (d E  =  -0.00448)

[...]

 d Force =-0.2260572E-04[-0.963E-04, 0.511E-04]  d Energy = 0.1327528E-02-0.135E-02
 d Force = 0.2196980E-01[ 0.214E-01, 0.225E-01]  d Ewald  = 0.1616273E+00-0.140E+00

[...]

 d Force = 0.1764110E-03[ 0.122E-03, 0.231E-03]  d Energy = 0.3632172E-03-0.187E-03
 d Force = 0.1527226E+00[ 0.151E+00, 0.154E+00]  d Ewald  =-0.3902534E+00 0.543E+00

 Conjugate gradient step on ions:
 trial-energy change:   -0.000363  1 .order   -0.000381   -0.000565   -0.000198
  (g-gl).g = 0.577E-03      g.g   = 0.515E-03  gl.gl    = 0.435E-02
 g(Force)  = 0.217E-03   g(Stress)= 0.298E-03 ortho     =-0.818E-04
 gamma     =   0.13256
 trial     =   1.11969
 opt step  =   1.72528  (harmonic =   1.72528) maximal distance =0.00182418
 next E    =  -178.701189   (d E  =  -0.00044)

[...]

 d Force = 0.4903091E-04[ 0.323E-04, 0.658E-04]  d Energy = 0.5516112E-04-0.613E-05
 d Force = 0.8151257E-01[ 0.811E-01, 0.819E-01]  d Ewald  =-0.2121217E+00 0.294E+00

[...]

 d Force = 0.5525177E-04[ 0.282E-04, 0.823E-04]  d Energy = 0.4469506E-04 0.106E-04
 d Force = 0.7348855E-01[ 0.729E-01, 0.740E-01]  d Ewald  = 0.2010121E+01-0.194E+01

 Conjugate gradient step on ions:
 trial-energy change:   -0.000045  1 .order   -0.000007   -0.000254    0.000240
  (g-gl).g = 0.170E-03      g.g   = 0.201E-03  gl.gl    = 0.515E-03
 g(Force)  = 0.488E-04   g(Stress)= 0.152E-03 ortho     = 0.114E-04
 gamma     =   0.32986
 trial     =   1.24081
 opt step  =   0.63821  (harmonic =   0.63821) maximal distance =0.00044405
 next E    =  -178.701238   (d E  =  -0.00007)

[...]

 eigenvalue-minimisations  :  1864
 total energy-change (2. order) :-0.4254055E-04  (-0.1792802E-03)
 number of electron     109.0000002 magnetization
 augmentation part       43.1224806 magnetization

[...]

 Broyden mixing:
  rms(total) = 0.23177E-02    rms(broyden)= 0.23153E-02
  rms(prec ) = 0.36737E-02
  weight for this iteration     100.00

 eigenvalues of (default mixing * dielectric matrix)
  average eigenvalue GAMMA=   0.5562
  1.2742  1.0540  0.2051  0.1183  0.1294

[...]

--------------------------------------- Iteration     13(   7)  ---------------------------------------

 eigenvalue-minimisations  :   880
 total energy-change (2. order) : 0.3156385E-05  (-0.2663419E-05)
 number of electron     109.0000002 magnetization
 augmentation part       43.1184746 magnetization

 Free energy of the ion-electron system (eV)
  alpha Z        PSCENC =       568.05030980
  Ewald energy   TEWEN  =     -5344.86389244
  -Hartree energ DENC   =      -632.30359723
  -exchange      EXHF   =         0.00000000
  -V(xc)+E(xc)   XCENC  =      -767.98368022
  PAW double counting   =      7773.61729135    -6971.63005284
  entropy T*S    EENTRO =        -0.10637499
  eigenvalues    EBANDS =       509.03451482
  atomic energy  EATOM  =      4687.48422623
  Solvation  Ediel_sol  =         0.00000000
  free energy    TOTEN  =      -178.70125550 eV

  energy without entropy =     -178.59488052  energy(sigma->0) =     -178.64806801

 average (electrostatic) potential at core
  the test charge radii are     1.2064  1.0103
  (the norm of the test charge is              1.0000)
       1 -38.9564       2 -38.6639       3 -38.8184       4 -38.7896       5 -38.8497
       6 -38.7232       7 -38.8444       8 -38.9420       9 -39.0986      10 -38.9022
      11 -39.0604      12 -38.8588      13 -38.8248      14 -38.8039      15 -38.8595
      16 -38.8446      17 -38.9076      18 -42.7731      19 -42.7579      20 -42.7601

 E-fermi :   6.5456     XC(G=0): -12.7944     alpha+bet :-15.6793

[...]

 k-point     8 :       0.5000    0.5000    0.3333
  band No.  band energies     occupation
      1       1.5592      2.00000
      2       1.8002      2.00000
      3       2.2090      2.00000
      4       2.2608      2.00000
      5       2.8790      2.00000
      6       2.9836      2.00000
      7       3.2659      2.00000
      8       3.4209      2.00000
      9       3.4783      2.00000
     10       3.5646      2.00000
     11       3.6176      2.00000
     12       3.6345      2.00000
     13       3.7891      2.00000
     14       3.8114      2.00000
     15       3.8392      2.00000
     16       3.8708      2.00000
     17       3.8722      2.00000
     18       3.9399      2.00000
     19       3.9926      2.00000
     20       4.0398      2.00000
     21       4.0783      2.00000
     22       4.1179      2.00000
     23       4.7162      2.00000
     24       4.7620      2.00000
     25       4.8272      2.00000
     26       4.9291      2.00000
     27       4.9849      2.00000
     28       5.0484      2.00000
     29       5.1149      2.00000
     30       5.1502      2.00000
     31       5.2110      2.00000
     32       5.2894      2.00000
     33       5.3405      2.00000
     34       5.3959      2.00000
     35       5.4613      2.00000
     36       5.4845      2.00000
     37       5.5172      2.00000
     38       5.5621      2.00000
     39       5.6054      2.00000
     40       5.6309      2.00000
     41       5.7139      2.00000
     42       5.8379      2.00000
     43       5.9012      2.00000
     44       5.9335      2.00000
     45       5.9959      2.00000
     46       6.0490      2.00000
     47       6.0625      2.00000
     48       6.1276      2.00000
     49       6.1893      2.00000
     50       6.2353      1.99999
     51       6.3152      1.99888
     52       6.3796      1.98112
     53       6.4086      1.94719
     54       6.4905      1.56388
     55       6.5520      0.92803
     56       6.6585      0.11034
     57       6.7185      0.01446
     58       6.7407      0.00578
     59       6.8417      0.00003
     60       6.9869      0.00000
     61       7.0295      0.00000
     62       7.0953      0.00000
     63       7.3094      0.00000
     64       7.4478      0.00000
     65       7.4762      0.00000
     66       7.5220      0.00000
     67       7.6225      0.00000
     68       7.6760      0.00000

 soft charge-density along one line, spin component           1
         0         1         2         3         4         5         6         7         8         9
 total charge-density along one line

------------------------ aborting loop because EDIFF is reached ----------------------------------------

  FORCE on cell =-STRESS in cart. coord.  units (eV):
  Direction    XX          YY          ZZ          XY          YZ          ZX
  Alpha Z   568.05031   568.05031   568.05031
  Ewald   -1819.54403 -1792.37270 -1732.96123   -17.17566     1.29267     0.29930
  Hartree   157.16282   201.18420   274.02950   -11.60220     0.39886     0.09214
  E(xc)    -498.94520  -498.19565  -497.49994     0.05218    -0.04365    -0.02124
  Local     386.21085   316.47536   181.51118    28.18854    -1.61426    -0.38381
  n-local   -88.74716   -91.99335   -90.46230    -0.33182    -0.02082    -0.06247
  augment   448.99730   448.82169   448.27884     0.16965     0.03363     0.04204
  Kinetic   846.94522   848.04646   849.08605     0.68264    -0.04933     0.03252
  Fock        0.00000     0.00000     0.00000     0.00000     0.00000     0.00000
  Total       0.13012     0.01631     0.03242    -0.01666    -0.00290    -0.00152
  in kB       0.82739     0.10371     0.20614    -0.10595    -0.01842    -0.00965

 VOLUME and BASIS-vectors are now :
  energy-cutoff  :      267.88
  volume of cell :      251.96
      direct lattice vectors                 reciprocal lattice vectors
     6.306800909 -0.032480262  0.000396445     0.158715969  0.030480545  0.000002938
    -1.841854980  9.590767156 -0.003249690     0.000537505  0.104370200  0.000086861
     0.000589811 -0.003473147  4.169617460    -0.000014672  0.000078445  0.239830222

  length of vectors
     6.306884558  9.766025546  4.169618948     0.161616281  0.104371620  0.239830235

 FORCES acting on ions
    electron-ion (+dipol)            ewald-force                    non-local-force                 convergence-correction
   0.125E+02 0.261E+02 -.255E+00   -.127E+02 -.262E+02 0.260E+00   0.191E+00 0.118E+00 -.281E-02   -.193E-02 0.611E-02 -.183E-03
   -.243E+02 0.151E+02 -.114E-01   0.251E+02 -.152E+02 0.202E-01   -.822E+00 0.149E+00 -.891E-02   -.773E-02 0.311E-01 0.261E-05
   -.565E+02 -.203E+02 0.163E-01   0.573E+02 0.201E+02 -.402E-02   -.896E+00 0.276E+00 -.111E-01   0.107E-01 -.225E-01 -.138E-03
   0.625E+00 -.644E+01 -.109E+00   -.548E+00 0.654E+01 0.141E+00   -.805E-01 -.832E-01 -.292E-01   0.408E-02 -.160E-01 -.416E-03
   0.523E+02 -.436E+02 -.184E+00   -.533E+02 0.435E+02 0.222E+00   0.999E+00 0.257E-01 -.347E-01   -.979E-02 -.203E-01 -.373E-03
   0.302E+02 0.288E+02 0.149E+00   -.310E+02 -.291E+02 -.174E+00   0.865E+00 0.190E+00 0.222E-01   0.620E-02 0.349E-01 0.273E-03
   0.299E+02 0.216E+02 0.949E-01   -.302E+02 -.216E+02 -.130E+00   0.274E+00 0.120E-01 0.319E-01   -.108E-01 0.541E-02 0.487E-03
   -.213E+02 -.616E+02 -.413E+00   0.216E+02 0.623E+02 0.421E+00   -.301E+00 -.685E+00 -.584E-02   0.102E-02 -.163E-01 -.350E-03
   -.355E+02 0.139E+02 0.167E+00   0.360E+02 -.138E+02 -.182E+00   -.425E+00 -.175E+00 0.117E-01   0.904E-02 0.179E-01 0.454E-03
   0.354E+02 -.283E+02 0.369E-04   -.357E+02 0.279E+02 0.181E-01   0.390E+00 0.459E+00 -.151E-01   -.523E-02 -.152E-01 -.377E-03
   0.359E+02 0.418E+02 0.362E+00   -.364E+02 -.425E+02 -.379E+00   0.495E+00 0.649E+00 0.144E-01   -.240E-02 0.110E-01 0.349E-03
   -.335E+02 -.365E+02 -.856E-01   0.336E+02 0.365E+02 0.106E+00   -.152E+00 0.778E-01 -.177E-01   0.927E-02 -.246E-01 -.347E-03
   0.316E+02 0.232E+02 -.410E-01   -.320E+02 -.233E+02 0.561E-01   0.416E+00 0.259E-01 -.137E-01   0.242E-02 0.124E-01 -.888E-04
   0.520E+02 0.145E+01 0.607E-03   -.528E+02 -.117E+01 -.192E-01   0.812E+00 -.254E+00 0.182E-01   -.617E-02 -.208E-01 0.492E-04
   -.239E+02 0.627E+01 0.102E+00   0.242E+02 -.629E+01 -.130E+00   -.331E+00 -.147E-01 0.248E-01   -.444E-02 0.354E-01 0.512E-03
   -.546E+02 0.193E+02 0.181E+00   0.557E+02 -.189E+02 -.219E+00   -.110E+01 -.344E+00 0.366E-01   0.906E-02 -.160E-01 0.217E-03
   -.321E+02 0.185E+01 -.413E-01   0.324E+02 -.139E+01 0.643E-01   -.300E+00 -.459E+00 -.202E-01   -.359E-02 -.149E-02 -.268E-03
   0.187E+02 0.316E+02 0.176E+00   -.188E+02 -.318E+02 -.152E+00   0.836E-01 0.207E+00 -.263E-01   -.990E-03 -.323E-01 0.607E-03
   -.120E+02 -.621E+02 -.198E+00   0.121E+02 0.623E+02 0.161E+00   -.732E-01 -.139E+00 0.391E-01   -.696E-02 -.282E-01 -.603E-03
   -.559E+01 0.279E+02 0.703E-01   0.559E+01 -.279E+02 -.816E-01   -.185E-01 -.842E-01 0.996E-02   0.885E-02 0.570E-01 0.392E-03
   -.239E-01 0.466E-01 -.198E-01   0.542E-13 -.107E-13 -.903E-14   0.278E-01 -.464E-01 0.234E-01   0.587E-03 -.253E-02 0.196E-03

 POSITION                                       TOTAL-FORCE (eV/Angst)
      4.22595      2.23379      3.50074         0.006623      0.002514      0.001483
      0.23967      3.21757      3.50476         0.000155     -0.001671     -0.000350
     -0.76759      7.95312      3.50322         0.005666      0.003877      0.000832
      1.86041      1.27245      3.49788         0.000404     -0.001524      0.002796
      1.66688      8.88678      3.49838         0.000155     -0.001003      0.002203
      2.54558      4.13611      3.50966        -0.000172     -0.004397     -0.002012
      0.94553      6.08708      3.51244         0.001122      0.002439     -0.002832
      5.79138      0.24452      3.49918        -0.000052     -0.002661      0.001954
      4.86114      5.08359      3.51185        -0.006288      0.004902     -0.002657
      3.85627      0.75595      1.41390         0.001962     -0.006037      0.002477
      2.93685      5.62967      1.42760        -0.001303     -0.007588     -0.002828
     -0.38249      9.41384      1.41102        -0.004313      0.002828      0.002441
      2.26718      2.73495      1.41744        -0.002628     -0.002902      0.001209
      1.31278      7.53818      1.42146        -0.002061      0.001074     -0.000574
      0.53069      4.64537      1.42665         0.000142     -0.000152     -0.003124
     -1.09857      6.61851      1.42554        -0.003876      0.007644     -0.001922
     -0.14870      1.81334      1.41403         0.006644      0.004301      0.002399
      3.25198      6.96686      3.50779        -0.004944     -0.002378     -0.001600
      3.62241      8.49609      1.41684         0.003616     -0.001705      0.001168
      4.54032      3.66715      1.42244        -0.000851      0.002440     -0.001062
    total drift:                                0.004494     -0.002330      0.003780

  FREE ENERGIE OF THE ION-ELECTRON SYSTEM (eV)
  free  energy   TOTEN  =      -178.70125550 eV

  energy  without entropy=     -178.59488052  energy(sigma->0) =     -178.64806801

 d Force =-0.2065410E-04[-0.276E-04,-0.137E-04]  d Energy = 0.3827359E-04-0.589E-04
 d Force =-0.3560412E-01[-0.357E-01,-0.355E-01]  d Ewald  =-0.9762846E+00 0.941E+00

 reached required accuracy - stopping structural energy minimisation