 vasp.5.4.4.18Apr17-6-g9f103f2a35 (build Jul 11 2019 11:52:51) complex

 executed on             LinuxIFC date 2023.11.29  16:54:45

 INCAR:
 POTCAR:    PAW_PBE V 08Apr2002
 POTCAR:    PAW_PBE Fe 06Sep2000
 POTCAR:    PAW_PBE V 08Apr2002
   VRHFIN =V: p6 d4 s1

   TITEL  = PAW_PBE V 08Apr2002
   POMASS =   50.941; ZVAL   =    5.000    mass and valenz
   ENMAX  =  192.543; ENMIN  =  144.408 eV

 POTCAR:    PAW_PBE Fe 06Sep2000
   VRHFIN =Fe:  d7 s1

   TITEL  = PAW_PBE Fe 06Sep2000
   POMASS =   55.847; ZVAL   =    8.000    mass and valenz
   ENMAX  =  267.882; ENMIN  =  200.911 eV

  PAW_PBE V 08Apr2002                   :
  PAW_PBE Fe 06Sep2000                  :

 POSCAR: EA0     6.370  9.635  4.287 90.01 90.00
  positions in direct lattice
 exchange correlation table for  LEXCH =        8
   RHO(1)=    0.500       N(1)  =     2000
   RHO(2)=  100.500       N(2)  =     4000

 ion  position               nearest neighbor table
   1  0.767  0.269  0.411-  17 2.00  15 2.39   2 2.54   3 2.61   5 2.62   5 2.62  15 2.84  20 2.91
                            14 2.96   4 2.98   4 2.98   9 3.13
   2  0.969  0.064  0.412-  16 2.05   3 2.51  19 2.52   1 2.54   4 2.61   4 2.62  18 2.93  18 2.94
                            19 2.94  17 2.95   5 3.01   5 3.02  10 3.08   9 3.16
   3  0.360  0.164  0.411-   9 2.08  12 2.42   2 2.51  18 2.54  18 2.55   1 2.61  12 2.86   4 2.94
                             4 2.94   5 2.96   5 2.96  14 2.97  17 2.99  16 3.08
   4  0.069  0.216  0.911-  12 1.99  17 2.41  18 2.42   2 2.61   5 2.61   2 2.62  17 2.85   3 2.94
                             3 2.94  11 2.94   1 2.98   1 2.98  15 2.98  19 3.12
   5  0.660  0.117  0.911-  19 2.13  18 2.50   9 2.51   4 2.61   1 2.62   1 2.62  15 2.93   9 2.93
                             3 2.96   3 2.96  12 2.99   2 3.01   2 3.02  13 3.08
   6  0.569  0.624  0.974-  13 2.46  15 2.51   7 2.53  11 2.56  14 2.59  14 2.59  10 2.61  10 2.61
                            19 2.95  12 2.97  20 2.97  20 2.97   8 2.99   8 2.99
   7  0.964  0.724  0.974-  19 2.45  11 2.51   6 2.53  20 2.60  20 2.60  16 2.61  16 2.61  13 2.64
                            10 2.93  10 2.93  15 2.93   8 2.96   8 2.96
   8  0.263  0.673  0.474-  16 2.48  20 2.52  14 2.53  11 2.59  11 2.59  13 2.63  13 2.63  10 2.63
                            17 2.94   7 2.96   7 2.96   9 2.98   6 2.99   6 2.99
   9  0.469  0.975  0.475-   3 2.08  18 2.37   5 2.51  10 2.51  16 2.57  13 2.60  13 2.60  18 2.81
                             5 2.93   8 2.98  19 2.98  19 2.98   1 3.13   2 3.16
  10  0.674  0.775  0.474-  20 2.48   9 2.51  16 2.53  19 2.59  19 2.59   6 2.61   6 2.61   8 2.63
                             7 2.93   7 2.93  14 2.95  13 2.95  13 2.95   2 3.08
  11  0.170  0.524  0.974-  12 2.46   7 2.51  15 2.53   6 2.56   8 2.59   8 2.59  17 2.61  17 2.61
                             4 2.94  13 2.97  20 2.97  20 2.97  14 2.99  14 2.99
  12  0.361  0.323  0.975-   4 1.99   3 2.42  11 2.46  14 2.63  14 2.63  15 2.64  18 2.86   3 2.86
                            17 2.95  17 2.95   6 2.97   5 2.99
  13  0.378  0.825  0.974-  18 2.17   6 2.46  19 2.52   9 2.60   9 2.60   8 2.63   8 2.63   7 2.64
                            10 2.95  10 2.95  11 2.97  16 3.01  16 3.01   5 3.08
  14  0.476  0.475  0.474-  20 2.52   8 2.53   6 2.59   6 2.59  12 2.63  12 2.63  17 2.63  10 2.95
                             1 2.96  15 2.96  15 2.97   3 2.97  11 2.99  11 2.99
  15  0.775  0.424  0.975-   1 2.39   6 2.51  11 2.53  20 2.60  20 2.60  12 2.64   1 2.84  17 2.93
                             5 2.93  17 2.93   7 2.93  14 2.96  14 2.97   4 2.98
  16  0.068  0.875  0.474-   2 2.05   8 2.48  10 2.53  18 2.56   9 2.57   7 2.61   7 2.61  19 2.95
                            19 2.95  20 2.95  18 2.97  13 3.01  13 3.01   3 3.08
  17  0.065  0.373  0.474-   1 2.00   4 2.41  20 2.48  11 2.61  11 2.61  14 2.63   4 2.85  15 2.93
                            15 2.93   8 2.94   2 2.95  12 2.95  12 2.95   3 2.99
  18  0.267  0.024  0.913-  13 2.17   9 2.37   4 2.42   5 2.50   3 2.54   3 2.55  16 2.56   9 2.81
                            12 2.86   2 2.93   2 2.94  16 2.97
  19  0.772  0.923  0.974-   5 2.13   7 2.45   2 2.52  13 2.52  10 2.59  10 2.59   2 2.94  16 2.95
                            16 2.95   6 2.95   9 2.98   9 2.98   4 3.12
  20  0.870  0.574  0.474-  17 2.48  10 2.48   8 2.52  14 2.52  15 2.60   7 2.60   7 2.60  15 2.60
                             1 2.91  16 2.95  11 2.97   6 2.97   6 2.97  11 2.97

  LATTYP: Found a triclinic cell.
 ALAT       =    16.9035793528
 B/A-ratio  =     0.3768236222
 C/A-ratio  =     0.2536251010
 COS(alpha) =     0.0000151615
 COS(beta)  =     0.5072051345
 COS(gamma) =     0.6540295856

  Lattice vectors:

 A1 = ( -11.0554410000,  -9.4862450000,  -8.5743440000)
 A2 = (  -6.3696680000,   0.0000000000,   0.0000000000)
 A3 = (  -0.0000650000,   0.0004200000,  -4.2871720000)

Analysis of symmetry for initial positions (statically):
 Subroutine PRICEL returns:
 Original cell was already a primitive cell.

 Routine SETGRP: Setting up the symmetry group for a
 triclinic supercell.

 Subroutine GETGRP returns: Found  1 space group operations
 (whereof  1 operations were pure point group operations)
 out of a pool of  2 trial point group operations.

The static configuration has the point symmetry C_1 .

Analysis of symmetry for dynamics (positions and initial velocities):
 Subroutine PRICEL returns:
 Original cell was already a primitive cell.

 Routine SETGRP: Setting up the symmetry group for a
 triclinic supercell.

 Subroutine GETGRP returns: Found  1 space group operations
 (whereof  1 operations were pure point group operations)
 out of a pool of  2 trial point group operations.

The dynamic configuration has the point symmetry C_1 .

 Subroutine INISYM returns: Found  1 space group operations
 (whereof  1 operations are pure point group operations),
 and found     1 'primitive' translations

 KPOINTS: EA

Automatic generation of k-mesh.
Space group operators:
 irot       det(A)        alpha          n_x          n_y          n_z        tau_x        tau_y        tau_z
    1     1.000000     0.000000     1.000000     0.000000     0.000000     0.000000     0.000000     0.000000

 Subroutine IBZKPT returns following result:

 Found      8 irreducible k-points:

 Following reciprocal coordinates:
            Coordinates               Weight
  0.000000  0.000000  0.000000      1.000000
  0.500000 -0.000000  0.000000      1.000000
  0.000000  0.500000 -0.000000      1.000000
  0.500000  0.500000 -0.000000      1.000000
  0.000000  0.000000  0.333333      2.000000
  0.500000 -0.000000  0.333333      2.000000
  0.000000  0.500000  0.333333      2.000000
  0.500000  0.500000  0.333333      2.000000

 Following cartesian coordinates:
            Coordinates               Weight
  0.000000  0.000000  0.000000      1.000000
  0.078497  0.013934  0.000000      1.000000
  0.000000  0.052703  0.000005      1.000000
  0.078497  0.066637  0.000005      1.000000
  0.000000  0.000000  0.077751      2.000000
  0.078497  0.013934  0.077752      2.000000
  0.000000  0.052703  0.077756      2.000000
  0.078497  0.066637  0.077757      2.000000

 SYSTEM =  unknown system
 POSCAR =  EA0     6.370  9.635  4.287 90.01 90.00

 Startparameter for this run:
   NWRITE =      2    write-flag & timer
   PREC   = normal    normal or accurate (medium, high low for compatibility)
   ISTART =      0    job   : 0-new  1-cont  2-samecut
   ICHARG =      2    charge: 1-file 2-atom 10-const
   ISPIN  =      1    spin polarized calculation?
   LNONCOLLINEAR =      F non collinear calculations
   LSORBIT =      F    spin-orbit coupling
   INIWAV =      1    electr: 0-lowe 1-rand  2-diag
   LASPH  =      F    aspherical Exc in radial PAW
   METAGGA=      F    non-selfconsistent MetaGGA calc.

 Electronic Relaxation 1
   ENCUT  =  267.9 eV  19.69 Ry    4.44 a.u.   8.50 12.86  5.72*2*pi/ulx,y,z
   ENINI  =  267.9     initial cutoff
   ENAUG  =  511.4 eV  augmentation charge cutoff
   NELM   =     60;   NELMIN=  2; NELMDL= -5     # of ELM steps
   EDIFF  = 0.1E-04   stopping-criterion for ELM
   LREAL  =      F    real-space projection
   NLSPLINE    = F    spline interpolate recip. space projectors
   LCOMPAT=      F    compatible to vasp.4.4
   GGA_COMPAT  = T    GGA compatible to vasp.4.4-vasp.4.6
   LMAXPAW     = -100 max onsite density
   LMAXMIX     =    2 max onsite mixed and CHGCAR
   VOSKOWN=      0    Vosko Wilk Nusair interpolation
   ROPT   =    0.00000   0.00000
 Ionic relaxation
   EDIFFG = -.1E-01   stopping-criterion for IOM
   NSW    =    500    number of steps for IOM
   NBLOCK =      1;   KBLOCK =    500    inner block; outer block
   IBRION =      2    ionic relax: 0-MD 1-quasi-New 2-CG
   NFREE  =      1    steps in history (QN), initial steepest desc. (CG)
   ISIF   =      3    stress and relaxation
   IWAVPR =     11    prediction:  0-non 1-charg 2-wave 3-comb
   ISYM   =      2    0-nonsym 1-usesym 2-fastsym
   LCORR  =      T    Harris-Foulkes like correction to forces

   POTIM  = 0.5000    time-step for ionic-motion
   TEIN   =    0.0    initial temperature
   TEBEG  =    0.0;   TEEND  =   0.0 temperature during run
   SMASS  =  -3.00    Nose mass-parameter (am)
   estimated Nose-frequenzy (Omega)   =  0.10E-29 period in steps =****** mass=  -0.927E-27a.u.
   SCALEE = 1.0000    scale energy and forces
   NPACO  =    256;   APACO  = 16.0  distance and # of slots for P.C.
   PSTRESS=    0.0 pullay stress

  Mass of Ions in am
   POMASS =  50.94 55.85
  Ionic Valenz
   ZVAL   =   5.00  8.00
  Atomic Wigner-Seitz radii
  virtual crystal weights
   VCA    =   1.00  1.00
   NELECT =     109.0000    total number of electrons
   NUPDOWN=      -1.0000    fix difference up-down

 DOS related values:
   EMIN   =  10.00;   EMAX   =-10.00  energy-range for DOS
   EFERMI =   0.00
   ISMEAR =     0;   SIGMA  =   0.10  broadening in eV -4-tet -1-fermi 0-gaus

 Electronic relaxation 2 (details)
   IALGO  =     38    algorithm
   LDIAG  =      T    sub-space diagonalisation (order eigenvalues)
   LSUBROT=      F    optimize rotation matrix (better conditioning)
   TURBO    =      0    0=normal 1=particle mesh
   IRESTART =      0    0=no restart 2=restart with 2 vectors
   NREBOOT  =      0    no. of reboots
   NMIN     =      0    reboot dimension
   EREF     =   0.00    reference energy to select bands
   IMIX   =      4    mixing-type and parameters
     AMIX     =   0.40;   BMIX     =  1.00
     AMIX_MAG =   1.60;   BMIX_MAG =  1.00
     AMIN     =   0.10
     WC   =   100.;   INIMIX=   1;  MIXPRE=   1;  MAXMIX= -45

 Intra band minimization:
   WEIMIN = 0.0010     energy-eigenvalue tresh-hold
   EBREAK =  0.37E-07  absolut break condition
   DEPER  =   0.30     relativ break condition

   TIME   =   0.40     timestep for ELM

  volume/ion in A,a.u.               =      12.95        87.42
  Fermi-wavevector in a.u.,A,eV,Ry     =   1.226714  2.318154 20.474434  1.504828
  Thomas-Fermi vector in A             =   2.361705

 Write flags
   LWAVE        =      F    write WAVECAR
   LDOWNSAMPLE  =      F    k-point downsampling of WAVECAR
   LCHARG       =      F    write CHGCAR
[...]
 next E    =  -178.124056   (d E  =  -0.83513)

[...]

 d Force = 0.1837181E+00[ 0.126E+00, 0.241E+00]  d Energy = 0.9780016E-01 0.859E-01
 d Force =-0.1690260E+01[-0.231E+01,-0.107E+01]  d Ewald  = 0.2341569E+02-0.251E+02

[...]

 d Force = 0.1490911E+00[-0.376E-01, 0.336E+00]  d Energy = 0.2467194E+00-0.976E-01
 d Force =-0.6089089E+01[-0.846E+01,-0.372E+01]  d Ewald  =-0.7112806E+02 0.650E+02

[...]

 d Force = 0.2094809E-03[-0.731E-02, 0.773E-02]  d Energy = 0.1703929E-01-0.168E-01
 d Force = 0.1659486E+01[ 0.156E+01, 0.176E+01]  d Ewald  = 0.1508073E+02-0.134E+02

[...]

 d Force = 0.9679291E-01[ 0.186E-03, 0.193E+00]  d Energy = 0.1114564E+00-0.147E-01
 d Force =-0.1618389E+01[-0.324E+01, 0.712E-02]  d Ewald  = 0.3910787E+01-0.553E+01

[...]

 d Force = 0.7434550E-01[ 0.639E-01, 0.848E-01]  d Energy = 0.8592757E-01-0.116E-01
 d Force = 0.2670457E+01[ 0.252E+01, 0.282E+01]  d Ewald  =-0.2395748E+00 0.291E+01

[...]

 Conjugate gradient step on ions:
 trial-energy change:   -0.035190  1 .order   -0.033869   -0.087545    0.019806
  (g-gl).g = 0.752E-01      g.g   = 0.710E-01  gl.gl    = 0.808E-01
 g(Force)  = 0.406E-01   g(Stress)= 0.304E-01 ortho     =-0.217E-02
 gamma     =   0.93110
 trial     =   1.26948
 opt step  =   1.04872  (harmonic =   1.03526) maximal distance =0.02540771
 next E    =  -178.795592   (d E  =  -0.03690)

[...]

 d Force =-0.4517130E-02[-0.504E-02,-0.399E-02]  d Energy = 0.1595743E-02-0.611E-02
 d Force =-0.4628876E+00[-0.469E+00,-0.457E+00]  d Ewald  =-0.4766420E+01 0.430E+01

[...]

 d Force = 0.2472294E-01[-0.121E-02, 0.507E-01]  d Energy = 0.2947864E-01-0.476E-02
 d Force = 0.2210978E+01[ 0.183E+01, 0.260E+01]  d Ewald  =-0.1309164E+02 0.153E+02

[...]

 d Force =-0.6475569E-03[-0.151E-02, 0.214E-03]  d Energy = 0.1457153E-02-0.210E-02
 d Force =-0.3551685E+00[-0.368E+00,-0.342E+00]  d Ewald  = 0.2444302E+01-0.280E+01

[...]

 d Force = 0.1259639E-02[-0.467E-03, 0.299E-02]  d Energy = 0.1213194E-02 0.464E-04
 d Force = 0.7273060E+00[ 0.701E+00, 0.754E+00]  d Ewald  =-0.9326688E+01 0.101E+02

[...]

 d Force =-0.1027776E-03[-0.404E-03, 0.199E-03]  d Energy = 0.1471263E-02-0.157E-02
 d Force =-0.3051050E+00[-0.310E+00,-0.300E+00]  d Ewald  = 0.3999902E+01-0.431E+01

[...]

 d Force = 0.7357017E-03[ 0.409E-03, 0.106E-02]  d Energy = 0.4390809E-03 0.297E-03
 d Force = 0.8122217E-02[ 0.476E-03, 0.158E-01]  d Ewald  =-0.3288891E+01 0.330E+01

[...]

 d Force =-0.1382901E-03[-0.159E-03,-0.118E-03]  d Energy = 0.6744064E-04-0.206E-03
 d Force =-0.1008218E-02[-0.164E-02,-0.374E-03]  d Ewald  = 0.9492656E+00-0.950E+00

[...]

 d Force = 0.7244922E-04[ 0.255E-04, 0.119E-03]  d Energy =-0.1749137E-04 0.899E-04
 d Force =-0.5078449E-01[-0.514E-01,-0.501E-01]  d Ewald  = 0.5867853E+00-0.638E+00

[...]

 d Force =-0.1363094E-04[-0.150E-04,-0.122E-04]  d Energy = 0.2571676E-04-0.393E-04
 d Force = 0.2445059E-01[ 0.243E-01, 0.246E-01]  d Ewald  =-0.2806257E+00 0.305E+00

[...]

 d Force =-0.1152671E-04[-0.149E-04,-0.820E-05]  d Energy =-0.5796209E-05-0.573E-05
 d Force = 0.1320231E-01[ 0.132E-01, 0.132E-01]  d Ewald  =-0.1530459E+00 0.166E+00

[...]

 d Force = 0.3909213E-03[ 0.259E-03, 0.523E-03]  d Energy = 0.4045169E-03-0.136E-04
 d Force =-0.1839819E+00[-0.187E+00,-0.181E+00]  d Ewald  =-0.1688553E+01 0.150E+01

[...]

 d Force = 0.5444712E-04[ 0.507E-04, 0.582E-04]  d Energy = 0.2955930E-04 0.249E-04
 d Force =-0.5549918E-01[-0.558E-01,-0.552E-01]  d Ewald  = 0.2717008E+00-0.327E+00

[...]

 d Force = 0.4242718E-04[-0.166E-04, 0.101E-03]  d Energy =-0.6081831E-04 0.103E-03
 d Force =-0.1125750E+00[-0.114E+00,-0.112E+00]  d Ewald  = 0.5419295E+00-0.655E+00

[...]

 d Force =-0.3064367E-06[-0.120E-04, 0.114E-04]  d Energy = 0.5012393E-04-0.504E-04
 d Force = 0.7762927E-01[ 0.771E-01, 0.781E-01]  d Ewald  =-0.3720844E+00 0.450E+00

[...]

 d Force =-0.3106373E-05[-0.364E-05,-0.258E-05]  d Energy = 0.1254013E-05-0.436E-05
 d Force = 0.1654429E-01[ 0.165E-01, 0.166E-01]  d Ewald  =-0.8007143E-01 0.966E-01

[...]

 d Force = 0.1286552E-03[ 0.765E-05, 0.250E-03]  d Energy = 0.1335092E-03-0.485E-05
 d Force =-0.1446432E+00[-0.147E+00,-0.142E+00]  d Ewald  =-0.1592090E+01 0.145E+01

 Conjugate gradient step on ions:
 trial-energy change:   -0.000134  1 .order   -0.000121   -0.000381    0.000139
  (g-gl).g = 0.380E-03      g.g   = 0.335E-03  gl.gl    = 0.569E-03
 g(Force)  = 0.166E-03   g(Stress)= 0.169E-03 ortho     =-0.607E-04
 gamma     =   0.66748
 trial     =   1.29224
 opt step  =   0.94758  (harmonic =   0.94758) maximal distance =0.00180559
 next E    =  -178.843391   (d E  =  -0.00014)

[...]

 d Force =-0.2444141E-05[-0.285E-05,-0.204E-05]  d Energy = 0.1833193E-04-0.208E-04
 d Force = 0.3913563E-01[ 0.389E-01, 0.393E-01]  d Ewald  = 0.4251145E+00-0.386E+00

[...]

 d Force =-0.3847190E-05[-0.652E-05,-0.117E-05]  d Energy =-0.1030569E-04 0.646E-05
 d Force = 0.1601395E-01[ 0.160E-01, 0.160E-01]  d Ewald  = 0.1751251E+00-0.159E+00

[...]

 eigenvalue-minimisations  :  1768
 total energy-change (2. order) :-0.5796160E-04  (-0.1256540E-03)
 number of electron     109.0000174 magnetization
 augmentation part       43.1070899 magnetization

[...]

 Broyden mixing:
  rms(total) = 0.28206E-02    rms(broyden)= 0.28184E-02
  rms(prec ) = 0.42375E-02
  weight for this iteration     100.00

 eigenvalues of (default mixing * dielectric matrix)
  average eigenvalue GAMMA=   0.5896
  1.3828  1.0872  0.2129  0.1325  0.1325

[...]

--------------------------------------- Iteration     39(   7)  ---------------------------------------

 eigenvalue-minimisations  :  1312
 total energy-change (2. order) : 0.2426299E-05  (-0.6105020E-05)
 number of electron     109.0000174 magnetization
 augmentation part       43.1101308 magnetization

 Free energy of the ion-electron system (eV)
  alpha Z        PSCENC =       568.60492684
  Ewald energy   TEWEN  =     -5360.72775131
  -Hartree energ DENC   =      -617.81987618
  -exchange      EXHF   =         0.00000000
  -V(xc)+E(xc)   XCENC  =      -767.95585326
  PAW double counting   =      7777.86209446    -6975.85944399
  entropy T*S    EENTRO =        -0.11086418
  eigenvalues    EBANDS =       509.67906112
  atomic energy  EATOM  =      4687.48422623
  Solvation  Ediel_sol  =         0.00000000
  free energy    TOTEN  =      -178.84348027 eV

  energy without entropy =     -178.73261609  energy(sigma->0) =     -178.78804818

 average (electrostatic) potential at core
  the test charge radii are     1.2064  1.0103
  (the norm of the test charge is              1.0000)
       1 -38.7161       2 -38.9360       3 -38.9368       4 -38.8676       5 -38.9152
       6 -38.6745       7 -39.1184       8 -38.8336       9 -38.6516      10 -39.0803
      11 -38.6847      12 -38.7146      13 -38.9280      14 -38.8185      15 -38.9437
      16 -38.9478      17 -38.8351      18 -42.7614      19 -42.7719      20 -42.7474

 E-fermi :   6.5459     XC(G=0): -12.8001     alpha+bet :-15.6946

[...]

 k-point     8 :       0.5000    0.5000    0.3333
  band No.  band energies     occupation
      1       1.6130      2.00000
      2       1.8868      2.00000
      3       2.0102      2.00000
      4       2.2675      2.00000
      5       2.9209      2.00000
      6       3.0466      2.00000
      7       3.3608      2.00000
      8       3.4397      2.00000
      9       3.4817      2.00000
     10       3.5897      2.00000
     11       3.6469      2.00000
     12       3.6747      2.00000
     13       3.7652      2.00000
     14       3.7993      2.00000
     15       3.8416      2.00000
     16       3.8480      2.00000
     17       3.8815      2.00000
     18       3.9946      2.00000
     19       4.0138      2.00000
     20       4.0526      2.00000
     21       4.1024      2.00000
     22       4.1235      2.00000
     23       4.7128      2.00000
     24       4.7534      2.00000
     25       4.8243      2.00000
     26       4.8866      2.00000
     27       4.9503      2.00000
     28       5.0579      2.00000
     29       5.1531      2.00000
     30       5.2158      2.00000
     31       5.2365      2.00000
     32       5.2847      2.00000
     33       5.3576      2.00000
     34       5.3658      2.00000
     35       5.4113      2.00000
     36       5.4461      2.00000
     37       5.5169      2.00000
     38       5.5561      2.00000
     39       5.5849      2.00000
     40       5.6115      2.00000
     41       5.7559      2.00000
     42       5.7740      2.00000
     43       5.8059      2.00000
     44       5.9421      2.00000
     45       5.9618      2.00000
     46       6.0250      2.00000
     47       6.0379      2.00000
     48       6.1247      2.00000
     49       6.1650      2.00000
     50       6.2657      1.99993
     51       6.3721      1.98604
     52       6.3950      1.96725
     53       6.5400      1.06680
     54       6.5745      0.68580
     55       6.5873      0.55869
     56       6.6896      0.04220
     57       6.7825      0.00082
     58       6.8311      0.00006
     59       6.9163      0.00000
     60       6.9779      0.00000
     61       7.0861      0.00000
     62       7.1547      0.00000
     63       7.2915      0.00000
     64       7.3668      0.00000
     65       7.4443      0.00000
     66       7.4672      0.00000
     67       7.5782      0.00000
     68       7.7000      0.00000

 soft charge-density along one line, spin component           1
         0         1         2         3         4         5         6         7         8         9
 total charge-density along one line

------------------------ aborting loop because EDIFF is reached ----------------------------------------

  FORCE on cell =-STRESS in cart. coord.  units (eV):
  Direction    XX          YY          ZZ          XY          YZ          ZX
  Alpha Z   568.60493   568.60493   568.60493
  Ewald   -1772.60704 -1824.27947 -1763.85536   -21.86558     0.16396     0.07575
  Hartree   223.70621   160.05293   234.05044     0.73715     0.02942     0.02142
  E(xc)    -498.58242  -498.75885  -497.55253     1.25859    -0.00276    -0.00167
  Local     268.69805   389.89351   253.56803    19.67483    -0.18481    -0.09417
  n-local   -88.87703   -91.51636   -89.65323     0.83789     0.00690     0.00174
  augment   449.47554   449.05298   447.54642    -1.38229     0.00091     0.00123
  Kinetic   849.73577   847.11048   847.42522     0.71946    -0.00277     0.00254
  Fock        0.00000     0.00000     0.00000     0.00000     0.00000     0.00000
  Total       0.15400     0.16014     0.13393    -0.01995     0.01085     0.00684
  in kB       0.98024     1.01931     0.85248    -0.12700     0.06906     0.04356

 VOLUME and BASIS-vectors are now :
  energy-cutoff  :      267.88
  volume of cell :      251.71
      direct lattice vectors                 reciprocal lattice vectors
     6.387192629 -0.017755076 -0.002456652     0.156642066  0.028339208 -0.000046481
    -1.718314939  9.497814945  0.003191652     0.000292840  0.105340341  0.000039784
     0.001516269 -0.001572052  4.151352774     0.000092471 -0.000064218  0.240885276

  length of vectors
     6.387217779  9.652000059  4.151353348     0.159184955  0.105340755  0.240885302

 FORCES acting on ions
    electron-ion (+dipol)            ewald-force                    non-local-force                 convergence-correction
   0.636E+01 -.117E+02 -.482E-01   -.658E+01 0.114E+02 0.550E-01   0.221E+00 0.365E+00 -.433E-02   -.579E-03 -.123E-01 0.102E-02
   0.139E+02 -.558E+02 -.135E+00   -.149E+02 0.561E+02 0.132E+00   0.896E+00 -.330E+00 0.135E-02   0.142E-01 -.602E-02 0.115E-02
   -.115E+02 -.568E+02 -.175E+00   0.112E+02 0.571E+02 0.178E+00   0.271E+00 -.215E+00 0.123E-02   -.112E-01 -.212E-01 0.280E-02
   0.130E+02 -.536E+02 -.270E-02   -.131E+02 0.541E+02 0.706E-02   0.522E-01 -.431E+00 -.335E-02   0.115E-01 -.218E-01 0.214E-02
   -.417E+00 -.523E+02 0.795E-02   0.590E+00 0.523E+02 -.500E-02   -.170E+00 0.757E-02 -.364E-02   -.225E-02 -.970E-02 0.144E-02
   0.306E+02 0.327E+02 0.396E-01   -.315E+02 -.331E+02 -.425E-01   0.897E+00 0.415E+00 0.228E-02   0.179E-01 0.632E-02 -.185E-02
   -.268E+02 0.293E+02 0.238E-01   0.270E+02 -.297E+02 -.241E-01   -.207E+00 0.367E+00 0.144E-02   -.509E-02 0.145E-01 -.455E-03
   -.309E+02 0.217E+02 0.230E-01   0.313E+02 -.218E+02 -.254E-01   -.419E+00 0.682E-01 0.469E-02   -.103E-01 0.172E-01 -.114E-02
   -.103E+01 -.965E+01 -.727E-02   0.112E+01 0.969E+01 0.336E-02   -.895E-01 -.472E-01 0.192E-02   -.528E-02 0.519E-02 0.673E-04
   0.349E+02 0.276E+02 -.219E-01   -.349E+02 -.279E+02 0.201E-01   -.389E-01 0.211E+00 0.192E-02   0.198E-01 0.132E-01 -.121E-02
   -.225E+02 0.200E+02 0.165E-01   0.232E+02 -.202E+02 -.182E-01   -.683E+00 0.238E+00 0.270E-02   -.905E-02 -.659E-02 -.106E-02
   -.234E+01 -.202E+02 -.836E-02   0.254E+01 0.207E+02 0.113E-01   -.195E+00 -.571E+00 -.122E-02   -.568E-02 -.172E-01 0.159E-02
   -.165E+01 0.396E+02 0.316E-01   0.148E+01 -.398E+02 -.363E-01   0.192E+00 0.125E+00 0.518E-02   -.139E-01 0.275E-01 -.783E-03
   0.287E+02 0.225E+02 -.926E-03   -.291E+02 -.225E+02 0.120E-02   0.331E+00 0.120E-01 -.142E-02   0.921E-02 -.930E-02 -.960E-03
   0.807E+01 0.350E+02 -.750E-02   -.816E+01 -.351E+02 0.496E-02   0.810E-01 0.152E+00 -.702E-03   -.514E-03 0.209E-02 -.507E-03
   -.195E+02 0.222E+02 0.406E-01   0.205E+02 -.221E+02 -.430E-01   -.986E+00 -.158E+00 0.256E-02   -.105E-01 0.164E-01 -.106E-02
   -.188E+02 0.874E+01 -.120E-01   0.189E+02 -.855E+01 0.169E-01   -.158E+00 -.167E+00 -.287E-02   0.442E-02 -.205E-01 -.643E-04
   -.385E+02 -.458E+02 0.970E-01   0.389E+02 0.460E+02 -.103E+00   -.359E+00 -.159E+00 0.410E-02   -.146E-01 0.538E-03 0.247E-02
   0.432E+02 -.971E+00 0.751E-01   -.436E+02 0.120E+01 -.818E-01   0.394E+00 -.231E+00 0.576E-02   0.295E-01 0.645E-02 -.315E-02
   -.473E+01 0.474E+02 0.475E-01   0.488E+01 -.478E+02 -.502E-01   -.130E+00 0.345E+00 0.296E-02   -.245E-01 0.323E-01 -.244E-02
   0.107E+00 -.820E-02 -.162E-01   -.124E-13 0.284E-13 -.479E-14   -.100E+00 -.332E-02 0.206E-01   -.708E-02 0.170E-01 -.200E-02

 POSITION                                       TOTAL-FORCE (eV/Angst)
      4.03374      2.53958      1.88876         0.001827      0.007617      0.003370
      5.61084      0.61856      1.88868        -0.001733      0.002682     -0.000440
      1.64092      1.60077      1.88902        -0.001992      0.000059      0.006910
     -0.35143      2.07822      3.96601        -0.001408      0.001637      0.003024
      3.62535      1.11892      3.96481         0.000865      0.001561      0.000641
      2.72879      5.91020      3.96828        -0.001000      0.002518     -0.002649
      5.07463      6.85024      3.96749         0.003304     -0.006303      0.000504
      0.66240      6.39215      1.89323         0.006245      0.000378      0.001042
      1.50163      9.21092      1.89352        -0.000663     -0.000047     -0.002036
      3.11284      7.32960      1.89297        -0.003861     -0.004688     -0.001201
      0.38216      4.95233      3.96787         0.000139     -0.001975     -0.000237
      2.01595      3.05817      3.96526        -0.002096     -0.003492      0.003179
      1.11155      7.83053      3.96946         0.005111      0.002900     -0.000387
      2.43213      4.49268      1.89113        -0.000995     -0.001567     -0.002228
      4.40611      4.01539      3.96574        -0.001177      0.000194     -0.003875
     -0.87882      8.31913      1.89456         0.002504     -0.000071     -0.001076
      0.00005      3.52496      1.89079        -0.001687     -0.001458      0.001856
      1.21931      0.20309      3.96653         0.003334      0.002694      0.000102
      3.51700      8.72215      3.96900        -0.004415     -0.000943     -0.004203
      4.74748      5.44291      1.89134        -0.002302     -0.001697     -0.002295
    total drift:                               -0.000008      0.005485      0.002408

  FREE ENERGIE OF THE ION-ELECTRON SYSTEM (eV)
  free  energy   TOTEN  =      -178.84348027 eV

  energy  without entropy=     -178.73261609  energy(sigma->0) =     -178.78804818

 d Force = 0.8103018E-04[ 0.381E-04, 0.124E-03]  d Energy = 0.8795541E-04-0.693E-05
 d Force = 0.7590231E-02[ 0.699E-02, 0.819E-02]  d Ewald  = 0.7670531E+00-0.759E+00

 Conjugate gradient step on ions:
 trial-energy change:   -0.000088  1 .order   -0.000075   -0.000169    0.000018
  (g-gl).g = 0.102E-03      g.g   = 0.140E-03  gl.gl    = 0.335E-03
 g(Force)  = 0.898E-04   g(Stress)= 0.498E-04 ortho     = 0.462E-05
 gamma     =   0.30419
 trial     =   1.19490
 opt step  =   1.07970  (harmonic =   1.07970) maximal distance =0.00110389
 next E    =  -178.843468   (d E  =  -0.00008)

 reached required accuracy - stopping structural energy minimisation