 vasp.5.4.4.18Apr17-6-g9f103f2a35 (build Jul 11 2019 11:52:51) complex

 executed on             LinuxIFC date 2023.11.29  16:48:29

 INCAR:
 POTCAR:    PAW_PBE V 08Apr2002
 POTCAR:    PAW_PBE Fe 06Sep2000
 POTCAR:    PAW_PBE V 08Apr2002
   VRHFIN =V: p6 d4 s1

   TITEL  = PAW_PBE V 08Apr2002
   POMASS =   50.941; ZVAL   =    5.000    mass and valenz
   ENMAX  =  192.543; ENMIN  =  144.408 eV

 POTCAR:    PAW_PBE Fe 06Sep2000
   VRHFIN =Fe:  d7 s1

   TITEL  = PAW_PBE Fe 06Sep2000
   POMASS =   55.847; ZVAL   =    8.000    mass and valenz
   ENMAX  =  267.882; ENMIN  =  200.911 eV

  PAW_PBE V 08Apr2002                   :
  PAW_PBE Fe 06Sep2000                  :

 POSCAR: EA0     6.364  9.725  4.257 90.03 89.99
  positions in direct lattice
 exchange correlation table for  LEXCH =        8
   RHO(1)=    0.500       N(1)  =     2000
   RHO(2)=  100.500       N(2)  =     4000

 ion  position               nearest neighbor table
   1  0.679  0.333  0.363-  10 2.31   6 2.48   3 2.52   8 2.53   4 2.55  10 2.59  15 2.63  14 2.85
                            17 2.87  15 2.88  18 2.96   5 2.98  14 3.09  17 3.11
   2  0.687  0.833  0.364-  11 2.37  19 2.50  18 2.50   5 2.57  12 2.62  11 2.64   7 2.65  12 2.85
                            13 2.86  16 2.90   8 2.96   6 2.96  13 3.07  16 3.11
   3  0.074  0.433  0.363-  14 2.32  18 2.47   1 2.52   4 2.54  20 2.58  14 2.61   6 2.64  15 2.81
                            20 2.84  17 2.85   8 2.95   7 2.96  15 3.06  17 3.10
   4  0.280  0.233  0.363-   9 2.32   5 2.48   8 2.52   3 2.54   1 2.55   9 2.59  17 2.60  14 2.85
                            17 2.86  10 2.87  19 2.96   6 2.98  14 3.09  10 3.10
   5  0.471  0.032  0.363-  16 2.36   4 2.48  19 2.52   2 2.57  16 2.61   8 2.64  10 2.65   9 2.80
                            10 2.89  12 2.91   7 2.96   1 2.98   9 3.02  12 3.12
   6  0.488  0.533  0.363-  17 2.34   1 2.48  18 2.52   7 2.57  11 2.57  17 2.63   3 2.64  11 2.82
                            15 2.83  20 2.88   2 2.96   4 2.98  15 3.07  20 3.11
   7  0.272  0.733  0.363-  20 2.35  18 2.50  19 2.50   6 2.57  16 2.60  20 2.62   2 2.65  13 2.79
                            16 2.83  11 2.85   3 2.96   5 2.96  13 3.01  11 3.08
   8  0.885  0.133  0.363-  12 2.34  19 2.47   4 2.52   1 2.53  12 2.60  14 2.60   5 2.64  14 2.85
                             9 2.87  10 2.87   3 2.95   2 2.96   9 3.08  10 3.09
   9  0.203  0.109  0.899-   4 2.32  16 2.52  14 2.53  10 2.54   4 2.59  12 2.59  19 2.64   5 2.80
                             8 2.87  19 2.87  17 2.92   5 3.02  13 3.03   8 3.08
  10  0.600  0.209  0.900-   1 2.31  14 2.51  12 2.52  17 2.53   9 2.54   1 2.59   5 2.65   8 2.87
                             4 2.87   5 2.89  15 2.96  16 3.04   8 3.09   4 3.10
  11  0.584  0.703  0.900-   2 2.37  16 2.48  20 2.51  15 2.52   6 2.57   2 2.64  13 2.64   6 2.82
                             7 2.85  18 2.90  17 2.92  12 3.02   7 3.08  18 3.12
  12  0.797  0.007  0.898-   8 2.34  10 2.52  13 2.56   9 2.59   8 2.60  16 2.61   2 2.62  19 2.84
                             2 2.85   5 2.91  14 2.95  11 3.02  19 3.05   5 3.12
  13  0.999  0.802  0.899-  19 2.36  20 2.48  16 2.50  12 2.56  18 2.59  19 2.62  11 2.64   7 2.79
                            18 2.83   2 2.86  15 2.90   7 3.01   9 3.03   2 3.07
  14  0.994  0.306  0.902-   3 2.32  15 2.51  10 2.51   9 2.53  17 2.53   8 2.60   3 2.61   1 2.85
                             8 2.85   4 2.85  20 2.92  12 2.95   1 3.09   4 3.09
  15  0.799  0.509  0.903-  18 2.31  20 2.50  14 2.51  11 2.52  18 2.60  17 2.61   1 2.63   3 2.81
                             6 2.83   1 2.88  13 2.90  10 2.96   3 3.06   6 3.07
  16  0.390  0.902  0.898-   5 2.36  11 2.48  13 2.50   9 2.52   7 2.60  12 2.61   5 2.61   7 2.83
                            19 2.86   2 2.90  20 2.96  10 3.04  19 3.08   2 3.11
  17  0.390  0.406  0.902-   6 2.34  20 2.47  10 2.53  14 2.53   4 2.60  15 2.61   6 2.63   3 2.85
                             4 2.86   1 2.87  11 2.92   9 2.92   3 3.10   1 3.11
  18  0.882  0.632  0.363-  15 2.31   3 2.47   7 2.50   2 2.50   6 2.52  13 2.59  15 2.60  13 2.83
                            20 2.84  11 2.90   1 2.96  19 2.97  20 3.07  11 3.12
  19  0.077  0.933  0.364-  13 2.36   8 2.47   2 2.50   7 2.50   5 2.52  13 2.62   9 2.64  12 2.84
                            16 2.86   9 2.87   4 2.96  18 2.97  12 3.05  16 3.08
  20  0.192  0.602  0.901-   7 2.35  17 2.47  13 2.48  15 2.50  11 2.51   3 2.58   7 2.62   3 2.84
                            18 2.84   6 2.88  14 2.92  16 2.96  18 3.07   6 3.11

  LATTYP: Found a triclinic cell.
 ALAT       =    15.1552610136
 B/A-ratio  =     0.4199240775
 C/A-ratio  =     0.2808922619
 COS(alpha) =     0.0000996008
 COS(beta)  =     0.2806511023
 COS(gamma) =     0.7232786681

  Lattice vectors:

 A1 = ( -10.9614770000,  -9.5606460000,  -4.2569950000)
 A2 = (  -6.3640590000,   0.0000000000,   0.0000000000)
 A3 = (  -0.0004240000,   0.0021130000,  -4.2569950000)

Analysis of symmetry for initial positions (statically):
 Subroutine PRICEL returns:
 Original cell was already a primitive cell.

 Routine SETGRP: Setting up the symmetry group for a
 triclinic supercell.

 Subroutine GETGRP returns: Found  1 space group operations
 (whereof  1 operations were pure point group operations)
 out of a pool of  2 trial point group operations.

The static configuration has the point symmetry C_1 .

Analysis of symmetry for dynamics (positions and initial velocities):
 Subroutine PRICEL returns:
 Original cell was already a primitive cell.

 Routine SETGRP: Setting up the symmetry group for a
 triclinic supercell.

 Subroutine GETGRP returns: Found  1 space group operations
 (whereof  1 operations were pure point group operations)
 out of a pool of  2 trial point group operations.

The dynamic configuration has the point symmetry C_1 .

 Subroutine INISYM returns: Found  1 space group operations
 (whereof  1 operations are pure point group operations),
 and found     1 'primitive' translations

 KPOINTS: EA

Automatic generation of k-mesh.
Space group operators:
 irot       det(A)        alpha          n_x          n_y          n_z        tau_x        tau_y        tau_z
    1     1.000000     0.000000     1.000000     0.000000     0.000000     0.000000     0.000000     0.000000

 Subroutine IBZKPT returns following result:

 Found      8 irreducible k-points:

 Following reciprocal coordinates:
            Coordinates               Weight
  0.000000  0.000000  0.000000      1.000000
  0.500000 -0.000000 -0.000000      1.000000
  0.000000  0.500000 -0.000000      1.000000
  0.500000  0.500000 -0.000000      1.000000
  0.000000  0.000000  0.333333      2.000000
  0.500000 -0.000000  0.333333      2.000000
  0.000000  0.500000  0.333333      2.000000
  0.500000  0.500000  0.333333      2.000000

 Following cartesian coordinates:
            Coordinates               Weight
  0.000000  0.000000  0.000000      1.000000
  0.078566  0.014518 -0.000001      1.000000
  0.000000  0.052286  0.000026      1.000000
  0.078566  0.066804  0.000025      1.000000
  0.000000  0.000000  0.078302      2.000000
  0.078566  0.014518  0.078302      2.000000
  0.000000  0.052286  0.078328      2.000000
  0.078566  0.066804  0.078328      2.000000

 SYSTEM =  unknown system
 POSCAR =  EA0     6.364  9.725  4.257 90.03 89.99

 Startparameter for this run:
   NWRITE =      2    write-flag & timer
   PREC   = normal    normal or accurate (medium, high low for compatibility)
   ISTART =      0    job   : 0-new  1-cont  2-samecut
   ICHARG =      2    charge: 1-file 2-atom 10-const
   ISPIN  =      1    spin polarized calculation?
   LNONCOLLINEAR =      F non collinear calculations
   LSORBIT =      F    spin-orbit coupling
   INIWAV =      1    electr: 0-lowe 1-rand  2-diag
   LASPH  =      F    aspherical Exc in radial PAW
   METAGGA=      F    non-selfconsistent MetaGGA calc.

 Electronic Relaxation 1
   ENCUT  =  267.9 eV  19.69 Ry    4.44 a.u.   8.49 12.98  5.68*2*pi/ulx,y,z
   ENINI  =  267.9     initial cutoff
   ENAUG  =  511.4 eV  augmentation charge cutoff
   NELM   =     60;   NELMIN=  2; NELMDL= -5     # of ELM steps
   EDIFF  = 0.1E-04   stopping-criterion for ELM
   LREAL  =      F    real-space projection
   NLSPLINE    = F    spline interpolate recip. space projectors
   LCOMPAT=      F    compatible to vasp.4.4
   GGA_COMPAT  = T    GGA compatible to vasp.4.4-vasp.4.6
   LMAXPAW     = -100 max onsite density
   LMAXMIX     =    2 max onsite mixed and CHGCAR
   VOSKOWN=      0    Vosko Wilk Nusair interpolation
   ROPT   =    0.00000   0.00000
 Ionic relaxation
   EDIFFG = -.1E-01   stopping-criterion for IOM
   NSW    =    500    number of steps for IOM
   NBLOCK =      1;   KBLOCK =    500    inner block; outer block
   IBRION =      2    ionic relax: 0-MD 1-quasi-New 2-CG
   NFREE  =      1    steps in history (QN), initial steepest desc. (CG)
   ISIF   =      3    stress and relaxation
   IWAVPR =     11    prediction:  0-non 1-charg 2-wave 3-comb
   ISYM   =      2    0-nonsym 1-usesym 2-fastsym
   LCORR  =      T    Harris-Foulkes like correction to forces

   POTIM  = 0.5000    time-step for ionic-motion
   TEIN   =    0.0    initial temperature
   TEBEG  =    0.0;   TEEND  =   0.0 temperature during run
   SMASS  =  -3.00    Nose mass-parameter (am)
   estimated Nose-frequenzy (Omega)   =  0.10E-29 period in steps =****** mass=  -0.926E-27a.u.
   SCALEE = 1.0000    scale energy and forces
   NPACO  =    256;   APACO  = 16.0  distance and # of slots for P.C.
   PSTRESS=    0.0 pullay stress

  Mass of Ions in am
   POMASS =  50.94 55.85
  Ionic Valenz
   ZVAL   =   5.00  8.00
  Atomic Wigner-Seitz radii
  virtual crystal weights
   VCA    =   1.00  1.00
   NELECT =     109.0000    total number of electrons
   NUPDOWN=      -1.0000    fix difference up-down

 DOS related values:
   EMIN   =  10.00;   EMAX   =-10.00  energy-range for DOS
   EFERMI =   0.00
   ISMEAR =     0;   SIGMA  =   0.10  broadening in eV -4-tet -1-fermi 0-gaus

 Electronic relaxation 2 (details)
   IALGO  =     38    algorithm
   LDIAG  =      T    sub-space diagonalisation (order eigenvalues)
   LSUBROT=      F    optimize rotation matrix (better conditioning)
   TURBO    =      0    0=normal 1=particle mesh
   IRESTART =      0    0=no restart 2=restart with 2 vectors
   NREBOOT  =      0    no. of reboots
   NMIN     =      0    reboot dimension
   EREF     =   0.00    reference energy to select bands
   IMIX   =      4    mixing-type and parameters
     AMIX     =   0.40;   BMIX     =  1.00
     AMIX_MAG =   1.60;   BMIX_MAG =  1.00
     AMIN     =   0.10
     WC   =   100.;   INIMIX=   1;  MIXPRE=   1;  MAXMIX= -45

 Intra band minimization:
   WEIMIN = 0.0010     energy-eigenvalue tresh-hold
   EBREAK =  0.37E-07  absolut break condition
   DEPER  =   0.30     relativ break condition

   TIME   =   0.40     timestep for ELM

  volume/ion in A,a.u.               =      12.95        87.42
  Fermi-wavevector in a.u.,A,eV,Ry     =   1.226714  2.318154 20.474433  1.504828
  Thomas-Fermi vector in A             =   2.361705

 Write flags
   LWAVE        =      F    write WAVECAR
[...]
 trial-energy change:   -1.393145  1 .order   -1.361269   -1.776933   -0.945606
  (g-gl).g = 0.178E+01      g.g   = 0.178E+01  gl.gl    = 0.000E+00
 g(Force)  = 0.167E+01   g(Stress)= 0.106E+00 ortho     = 0.000E+00
 gamma     =   0.00000
 trial     =   1.00000
 opt step  =   1.80387  (harmonic =   2.13747) maximal distance =0.10918661
 next E    =  -178.675153   (d E  =  -1.78977)

[...]

 d Force = 0.4401016E+00[ 0.120E+00, 0.760E+00]  d Energy = 0.3919866E+00 0.481E-01
 d Force = 0.1649419E+00[-0.574E+01, 0.607E+01]  d Ewald  = 0.3602965E+02-0.359E+02

[...]

 d Force = 0.1554734E+00[ 0.166E-01, 0.294E+00]  d Energy = 0.1312810E+00 0.242E-01
 d Force =-0.3233482E+01[-0.452E+01,-0.195E+01]  d Ewald  =-0.8264120E+02 0.794E+02

 Conjugate gradient step on ions:
 trial-energy change:   -0.131281  1 .order   -0.142848   -0.620404    0.334708
  (g-gl).g = 0.538E+00      g.g   = 0.535E+00  gl.gl    = 0.178E+01
 g(Force)  = 0.202E+00   g(Stress)= 0.333E+00 ortho     =-0.293E-02
 gamma     =   0.30293
 trial     =   1.16077
 opt step  =   0.73439  (harmonic =   0.75399) maximal distance =0.02917538
 next E    =  -178.863838   (d E  =  -0.19333)

[...]

 d Force =-0.2306925E-01[-0.405E-01,-0.560E-02]  d Energy = 0.6273162E-01-0.858E-01
 d Force = 0.1456181E+01[ 0.129E+01, 0.162E+01]  d Ewald  = 0.3034642E+02-0.289E+02

[...]

 d Force = 0.7936076E-01[ 0.290E-01, 0.130E+00]  d Energy = 0.1123082E+00-0.329E-01
 d Force =-0.9085155E+00[-0.140E+01,-0.420E+00]  d Ewald  = 0.1719779E+02-0.181E+02

 Conjugate gradient step on ions:
 trial-energy change:   -0.112308  1 .order   -0.108364   -0.190672   -0.026055
  (g-gl).g = 0.170E+00      g.g   = 0.175E+00  gl.gl    = 0.535E+00
 g(Force)  = 0.902E-01   g(Stress)= 0.852E-01 ortho     = 0.593E-02
 gamma     =   0.31765
 trial     =   1.07550
 opt step  =   1.22183  (harmonic =   1.24573) maximal distance =0.03399375
 next E    =  -178.978614   (d E  =  -0.11409)

[...]

 d Force = 0.2981886E-02[ 0.201E-02, 0.395E-02]  d Energy = 0.2187770E-02 0.794E-03
 d Force =-0.1988147E+00[-0.208E+00,-0.189E+00]  d Ewald  = 0.2277865E+01-0.248E+01

[...]

 d Force = 0.1198792E-01[ 0.548E-02, 0.185E-01]  d Energy = 0.1295788E-01-0.970E-03
 d Force =-0.6320872E-01[-0.171E+00, 0.444E-01]  d Ewald  =-0.6963536E+01 0.690E+01

[...]

 d Force = 0.7342486E-03[-0.256E-02, 0.403E-02]  d Energy = 0.6474516E-03 0.868E-04
 d Force =-0.4023899E-01[-0.866E-01, 0.617E-02]  d Ewald  = 0.1169266E+02-0.117E+02

[...]

 d Force = 0.4887418E-03[-0.222E-03, 0.120E-02]  d Energy = 0.2380107E-02-0.189E-02
 d Force = 0.3131529E-01[ 0.211E-01, 0.415E-01]  d Ewald  =-0.5447146E+01 0.548E+01

[...]

 d Force = 0.1131084E-02[ 0.807E-03, 0.146E-02]  d Energy = 0.1294336E-02-0.163E-03
 d Force = 0.1863912E+00[ 0.182E+00, 0.191E+00]  d Ewald  =-0.2126308E+00 0.399E+00

[...]

 d Force = 0.4906060E-03[-0.328E-04, 0.101E-02]  d Energy = 0.5511507E-03-0.605E-04
 d Force = 0.2218834E+00[ 0.215E+00, 0.229E+00]  d Ewald  =-0.2797111E+00 0.502E+00

[...]

 Conjugate gradient step on ions:
 trial-energy change:   -0.000443  1 .order   -0.000442   -0.000585   -0.000300
  (g-gl).g = 0.487E-03      g.g   = 0.459E-03  gl.gl    = 0.159E-02
 g(Force)  = 0.428E-03   g(Stress)= 0.310E-04 ortho     =-0.270E-04
 gamma     =   0.30536
 trial     =   1.29884
 opt step  =   2.65968  (harmonic =   2.65968) maximal distance =0.00395841
 next E    =  -178.997764   (d E  =  -0.00060)

[...]

 d Force =-0.1719715E-04[-0.170E-04,-0.174E-04]  d Energy = 0.6288136E-05-0.235E-04
 d Force =-0.6632832E-02[-0.665E-02,-0.661E-02]  d Ewald  = 0.3334760E+00-0.340E+00

[...]

 d Force =-0.6252952E-05[-0.645E-05,-0.606E-05]  d Energy =-0.5824550E-06-0.567E-05
 d Force =-0.2380559E-02[-0.238E-02,-0.238E-02]  d Ewald  = 0.1191412E+00-0.122E+00

[...]

 d Force = 0.1104290E-03[-0.519E-04, 0.273E-03]  d Energy = 0.7974180E-04 0.307E-04
 d Force = 0.2359544E-01[ 0.220E-01, 0.252E-01]  d Ewald  = 0.4860827E+00-0.462E+00

[...]

 d Force = 0.8783515E-05[ 0.482E-05, 0.127E-04]  d Energy = 0.1633240E-04-0.755E-05
 d Force =-0.5478982E-02[-0.558E-02,-0.538E-02]  d Ewald  =-0.1190724E+00 0.114E+00

[...]

 d Force =-0.2671006E-05[-0.971E-05, 0.437E-05]  d Energy =-0.7267341E-05 0.460E-05
 d Force =-0.5134971E-02[-0.522E-02,-0.505E-02]  d Ewald  =-0.1080686E+00 0.103E+00

[...]

 d Force = 0.3755171E-05[ 0.427E-05, 0.324E-05]  d Energy =-0.1920307E-06 0.395E-05
 d Force = 0.1733465E-02[ 0.172E-02, 0.174E-02]  d Ewald  = 0.3610114E-01-0.344E-01

[...]

 d Force = 0.3368584E-05[ 0.248E-05, 0.426E-05]  d Energy = 0.2760068E-05 0.609E-06
 d Force = 0.1711160E-02[ 0.170E-02, 0.172E-02]  d Ewald  = 0.3599238E-01-0.343E-01

[...]

 d Force = 0.4377352E-04[ 0.396E-04, 0.479E-04]  d Energy = 0.4537929E-04-0.161E-05
 d Force = 0.1501706E-01[ 0.149E-01, 0.151E-01]  d Ewald  =-0.3547329E+00 0.370E+00

 Conjugate gradient step on ions:
 trial-energy change:   -0.000045  1 .order   -0.000055   -0.000061   -0.000049
  (g-gl).g = 0.758E-04      g.g   = 0.622E-04  gl.gl    = 0.187E-03
 g(Force)  = 0.443E-04   g(Stress)= 0.179E-04 ortho     = 0.775E-05
 gamma     =   0.40444
 trial     =   0.93945
 opt step  =   3.75780  (harmonic =   4.69369) maximal distance =0.00225263
 next E    =  -178.998258   (d E  =  -0.00015)

[...]

 d Force = 0.5978055E-04[ 0.707E-06, 0.119E-03]  d Energy =-0.5581632E-04 0.116E-03
 d Force = 0.4401460E-01[ 0.432E-01, 0.448E-01]  d Ewald  =-0.1064974E+01 0.111E+01

[...]

 eigenvalue-minimisations  :  1928
 total energy-change (2. order) : 0.2886487E-04  (-0.2499508E-04)
 number of electron     108.9999983 magnetization
 augmentation part       43.0575126 magnetization

 Broyden mixing:
  rms(total) = 0.29206E-02    rms(broyden)= 0.29179E-02
  rms(prec ) = 0.50397E-02
  weight for this iteration     100.00

 eigenvalues of (default mixing * dielectric matrix)
  average eigenvalue GAMMA=   0.6368
  1.5313  0.6890  0.1398  0.1870

[...]

--------------------------------------- Iteration     27(   6)  ---------------------------------------

 eigenvalue-minimisations  :  1672
 total energy-change (2. order) :-0.5835465E-05  (-0.8645607E-05)
 number of electron     108.9999983 magnetization
 augmentation part       43.0575126 magnetization

 Free energy of the ion-electron system (eV)
  alpha Z        PSCENC =       567.59729231
  Ewald energy   TEWEN  =     -5324.48808302
  -Hartree energ DENC   =      -650.94890055
  -exchange      EXHF   =         0.00000000
  -V(xc)+E(xc)   XCENC  =      -767.89450298
  PAW double counting   =      7760.54080110    -6958.51023858
  entropy T*S    EENTRO =        -0.09670083
  eigenvalues    EBANDS =       507.31793579
  atomic energy  EATOM  =      4687.48422623
  Solvation  Ediel_sol  =         0.00000000
  free energy    TOTEN  =      -178.99817053 eV

  energy without entropy =     -178.90146970  energy(sigma->0) =     -178.94982012

 average (electrostatic) potential at core
  the test charge radii are     1.2064  1.0103
  (the norm of the test charge is              1.0000)
       1 -38.6916       2 -38.9547       3 -39.0801       4 -38.7412       5 -38.8635
       6 -38.8369       7 -39.1779       8 -38.8508       9 -38.9623      10 -38.6986
      11 -38.8241      12 -38.7023      13 -39.3061      14 -38.7410      15 -39.0930
      16 -38.6412      17 -38.8512      18 -42.8265      19 -42.7879      20 -42.8056

 E-fermi :   6.5484     XC(G=0): -12.7928     alpha+bet :-15.6668

[...]

 k-point     8 :       0.5000    0.5000    0.3333
  band No.  band energies     occupation
      1       1.4821      2.00000
      2       1.8498      2.00000
      3       2.1123      2.00000
      4       2.2826      2.00000
      5       2.8985      2.00000
      6       2.9318      2.00000
      7       3.2496      2.00000
      8       3.3912      2.00000
      9       3.4905      2.00000
     10       3.5773      2.00000
     11       3.5896      2.00000
     12       3.6338      2.00000
     13       3.7392      2.00000
     14       3.7705      2.00000
     15       3.8114      2.00000
     16       3.8579      2.00000
     17       3.8788      2.00000
     18       3.9960      2.00000
     19       4.0337      2.00000
     20       4.0636      2.00000
     21       4.1098      2.00000
     22       4.1467      2.00000
     23       4.6594      2.00000
     24       4.7517      2.00000
     25       4.7929      2.00000
     26       4.8338      2.00000
     27       4.9393      2.00000
     28       4.9563      2.00000
     29       5.1077      2.00000
     30       5.1589      2.00000
     31       5.1835      2.00000
     32       5.2435      2.00000
     33       5.3279      2.00000
     34       5.3722      2.00000
     35       5.4021      2.00000
     36       5.5067      2.00000
     37       5.5283      2.00000
     38       5.5583      2.00000
     39       5.5965      2.00000
     40       5.6178      2.00000
     41       5.7386      2.00000
     42       5.7466      2.00000
     43       5.8670      2.00000
     44       5.9210      2.00000
     45       5.9642      2.00000
     46       6.0128      2.00000
     47       6.1081      2.00000
     48       6.1848      2.00000
     49       6.1976      2.00000
     50       6.2455      1.99998
     51       6.3605      1.99213
     52       6.4162      1.93841
     53       6.4191      1.93250
     54       6.4646      1.76431
     55       6.5398      1.09724
     56       6.6622      0.10762
     57       6.7348      0.00840
     58       6.7845      0.00084
     59       6.9085      0.00000
     60       6.9826      0.00000
     61       7.1184      0.00000
     62       7.1558      0.00000
     63       7.3072      0.00000
     64       7.3783      0.00000
     65       7.4242      0.00000
     66       7.5045      0.00000
     67       7.5323      0.00000
     68       7.6018      0.00000

 soft charge-density along one line, spin component           1
         0         1         2         3         4         5         6         7         8         9
 total charge-density along one line

------------------------ aborting loop because EDIFF is reached ----------------------------------------

  FORCE on cell =-STRESS in cart. coord.  units (eV):
  Direction    XX          YY          ZZ          XY          YZ          ZX
  Alpha Z   567.59729   567.59729   567.59729
  Ewald   -1779.23439 -1841.68316 -1703.58532   -20.12748     0.27893    -0.00899
  Hartree   217.54695   148.96417   284.35947   -11.43901     0.04018    -0.05007
  E(xc)    -497.73071  -498.25378  -498.05370     0.48078    -0.00330    -0.00276
  Local     283.31928   417.48977   144.12801    31.11383    -0.28038     0.06503
  n-local   -86.90907   -90.88334   -89.11007     0.26366    -0.00352     0.01707
  augment   447.81728   448.92425   447.99014    -0.59605    -0.00884    -0.00356
  Kinetic   847.41167   847.67570   846.49230     0.29562    -0.03322    -0.00384
  Fock        0.00000     0.00000     0.00000     0.00000     0.00000     0.00000
  Total      -0.18170    -0.16909    -0.18189    -0.00864    -0.01014     0.01288
  in kB      -1.15448    -1.07437    -1.15569    -0.05493    -0.06445     0.08185

 VOLUME and BASIS-vectors are now :
  energy-cutoff  :      267.88
  volume of cell :      252.16
      direct lattice vectors                 reciprocal lattice vectors
     6.392083896 -0.030788996 -0.000686815     0.156586877  0.029765507  0.000010001
    -1.821000261  9.579703481  0.001379468     0.000503271  0.104483027  0.000031337
    -0.000028290 -0.001236068  4.121720874     0.000025924 -0.000030009  0.242617100

  length of vectors
     6.392158084  9.751244159  4.121721059     0.159390827  0.104484243  0.242617103

 FORCES acting on ions
    electron-ion (+dipol)            ewald-force                    non-local-force                 convergence-correction
   0.103E+02 0.464E+02 -.209E-01   -.103E+02 -.469E+02 0.171E-01   -.257E-01 0.543E+00 0.336E-02   -.103E-01 -.401E-01 0.138E-02
   0.467E+02 -.386E+02 -.384E-01   -.471E+02 0.386E+02 0.431E-01   0.423E+00 -.637E-01 -.444E-02   0.428E-02 0.619E-01 -.137E-02
   -.136E+02 0.836E+02 0.430E-01   0.137E+02 -.837E+02 -.471E-01   -.162E+00 0.127E+00 0.319E-02   0.870E-03 -.383E-01 0.164E-02
   -.123E+02 -.142E+01 -.515E-01   0.124E+02 0.196E+01 0.546E-01   -.140E+00 -.512E+00 -.403E-02   0.102E-01 -.357E-01 0.440E-03
   -.338E+02 -.440E+02 -.115E+00   0.342E+02 0.441E+02 0.126E+00   -.418E+00 -.977E-01 -.389E-02   -.730E-02 -.155E-02 -.201E-02
   0.282E+01 0.417E+02 0.509E-01   -.226E+01 -.420E+02 -.616E-01   -.566E+00 0.295E+00 0.399E-02   0.335E-02 -.171E-01 0.166E-02
   -.588E+02 -.257E+02 -.990E-01   0.591E+02 0.257E+02 0.973E-01   -.311E+00 -.151E+00 0.316E-02   0.252E-02 0.622E-01 -.302E-03
   0.278E+02 -.325E+02 -.778E-01   -.281E+02 0.326E+02 0.813E-01   0.270E+00 -.281E-02 -.746E-03   0.776E-02 -.398E-01 -.608E-03
   -.121E+02 -.546E+02 0.857E-01   0.121E+02 0.547E+02 -.817E-01   -.451E-01 -.114E+00 -.332E-02   -.222E-02 -.275E-01 -.253E-02
   -.205E+01 -.424E+01 0.482E-01   0.188E+01 0.417E+01 -.481E-01   0.170E+00 0.104E+00 -.150E-02   0.662E-02 -.264E-01 -.597E-03
   0.856E+00 -.847E+01 0.995E-03   -.144E+01 0.870E+01 0.235E-02   0.601E+00 -.269E+00 -.282E-02   -.142E-01 0.333E-01 0.410E-03
   0.293E+02 -.409E+02 -.140E-01   -.300E+02 0.411E+02 0.234E-01   0.714E+00 -.219E+00 -.621E-02   -.205E-02 0.240E-01 -.147E-02
   0.239E+02 -.377E+02 0.781E-01   -.242E+02 0.376E+02 -.766E-01   0.236E+00 0.589E-02 -.167E-02   -.144E-02 0.777E-01 -.117E-02
   0.796E+01 0.303E+02 0.747E-01   -.817E+01 -.307E+02 -.812E-01   0.211E+00 0.411E+00 0.249E-02   -.372E-02 -.477E-01 0.535E-03
   0.409E+02 0.761E+02 0.199E+00   -.411E+02 -.763E+02 -.206E+00   0.188E+00 0.254E+00 0.347E-04   -.200E-01 -.376E-01 0.208E-02
   -.367E+02 -.452E+02 0.561E-01   0.375E+02 0.454E+02 -.540E-01   -.859E+00 -.273E+00 -.411E-02   0.112E-01 0.526E-01 -.107E-02
   -.229E+02 0.517E+02 0.519E-01   0.232E+02 -.517E+02 -.604E-01   -.294E+00 0.185E-01 0.445E-02   0.115E-01 -.417E-01 0.197E-02
   0.522E+02 0.361E+02 -.140E+00   -.537E+02 -.366E+02 0.145E+00   0.152E+01 0.494E+00 -.902E-02   -.262E-01 0.112E-01 0.405E-02
   -.878E+00 -.841E+02 -.193E+00   0.945E+00 0.847E+02 0.207E+00   -.709E-01 -.653E+00 -.602E-02   0.515E-02 0.675E-01 -.425E-02
   -.498E+02 0.513E+02 0.731E-01   0.512E+02 -.515E+02 -.795E-01   -.139E+01 0.154E+00 -.102E-02   0.235E-01 -.500E-02 0.402E-02
   -.603E-01 -.796E-01 0.115E-01   0.142E-13 -.142E-13 0.138E-13   0.570E-01 0.507E-01 -.281E-01   -.657E-03 0.319E-01 0.280E-02

 POSITION                                       TOTAL-FORCE (eV/Angst)
      3.77042      3.29656      1.57477        -0.003746      0.001675      0.001632
      2.91490      8.03685      1.57313         0.001873     -0.004033     -0.000463
     -0.26697      4.29165      1.57583        -0.001456     -0.000071      0.001393
      1.37753      2.36179      1.57412        -0.000979     -0.002702      0.000246
      2.96843      0.36057      1.57135        -0.002245      0.000556      0.005272
      2.16849      5.21961      1.57613        -0.000485      0.002914     -0.004338
      0.44950      7.10382      1.57408        -0.000225     -0.006079      0.001835
      5.42760      1.31958      1.57215        -0.002128      0.002635      0.002859
      1.00776      0.86375      3.63358         0.002442      0.007600     -0.001168
      3.38904      1.84944      3.63427         0.003752      0.002634     -0.001299
      2.46552      6.63113      3.63518         0.002616     -0.005466      0.001623
      5.01978     -0.10116      3.63195         0.000328     -0.000628      0.002372
      4.89906      7.57298      3.63410        -0.000730      0.002231     -0.000670
      5.77560      2.76999      3.63522        -0.000012      0.002767     -0.002754
      4.18039      4.76554      3.63679         0.002256     -0.000616     -0.004939
      0.83942      8.51612      3.63429        -0.003890     -0.004671     -0.002446
      1.72386      3.80056      3.63670        -0.003898      0.000694     -0.001405
      4.52677      6.16121      1.57393         0.002942      0.001054      0.000831
     -1.16241      9.03328      1.57259         0.001040      0.000120      0.004138
      0.10014      5.69257      3.63611         0.002545     -0.000616     -0.002719
    total drift:                               -0.003930      0.002967     -0.013859

  FREE ENERGIE OF THE ION-ELECTRON SYSTEM (eV)
  free  energy   TOTEN  =      -178.99817053 eV

  energy  without entropy=     -178.90146970  energy(sigma->0) =     -178.94982012

 d Force =-0.1041223E-04[-0.204E-04,-0.401E-06]  d Energy = 0.7579665E-04-0.862E-04
 d Force =-0.2486965E-01[-0.251E-01,-0.246E-01]  d Ewald  = 0.6060367E+00-0.631E+00

 reached required accuracy - stopping structural energy minimisation