 vasp.5.4.4.18Apr17-6-g9f103f2a35 (build Jul 11 2019 11:52:51) complex

 executed on             LinuxIFC date 2023.11.29  16:52:09

 INCAR:
 POTCAR:    PAW_PBE V 08Apr2002
 POTCAR:    PAW_PBE Fe 06Sep2000
 POTCAR:    PAW_PBE V 08Apr2002
   VRHFIN =V: p6 d4 s1

   TITEL  = PAW_PBE V 08Apr2002
   POMASS =   50.941; ZVAL   =    5.000    mass and valenz
   ENMAX  =  192.543; ENMIN  =  144.408 eV

 POTCAR:    PAW_PBE Fe 06Sep2000
   VRHFIN =Fe:  d7 s1

   TITEL  = PAW_PBE Fe 06Sep2000
   POMASS =   55.847; ZVAL   =    8.000    mass and valenz
   ENMAX  =  267.882; ENMIN  =  200.911 eV

  PAW_PBE V 08Apr2002                   :
  PAW_PBE Fe 06Sep2000                  :

 POSCAR: EA0     6.388  6.388  6.388 86.27 86.27
  positions in direct lattice
 exchange correlation table for  LEXCH =        8
   RHO(1)=    0.500       N(1)  =     2000
   RHO(2)=  100.500       N(2)  =     4000

 ion  position               nearest neighbor table
   1  0.503  0.633  0.264-   6 1.81   5 1.81  17 1.98  11 2.25  10 2.47  16 2.51  14 2.56  19 2.80
                             3 2.83   2 2.83  15 3.16
   2  0.264  0.503  0.633-   6 1.81   4 1.81  17 1.98  12 2.25  11 2.47  16 2.51  15 2.56  20 2.80
                             1 2.83   3 2.83  13 3.16
   3  0.633  0.264  0.503-   4 1.81   5 1.81  17 1.98  10 2.25  12 2.47  16 2.51  13 2.56  18 2.80
                             1 2.83   2 2.83  14 3.16
   4  0.497  0.367  0.736-   3 1.81   2 1.81  16 1.98  14 2.25  13 2.47  17 2.51  11 2.56  19 2.80
                             6 2.83   5 2.83  12 3.16
   5  0.736  0.497  0.367-   3 1.81   1 1.81  16 1.98  15 2.25  14 2.47  17 2.51  12 2.56  20 2.80
                             4 2.83   6 2.83  10 3.16
   6  0.367  0.736  0.497-   1 1.81   2 1.81  16 1.98  13 2.25  15 2.47  17 2.51  10 2.56  18 2.80
                             4 2.83   5 2.83  11 3.16
   7  0.219  0.219  0.219-  17 1.80   9 2.57  19 2.60  20 2.60  18 2.60  12 2.98  11 2.98  10 2.98

   8  0.781  0.781  0.781-  16 1.80   9 2.57  19 2.60  20 2.60  18 2.60  15 2.98  14 2.98  13 2.98

[...]

  10  0.626  0.985  0.307-  19 2.16   3 2.25   1 2.47   6 2.56  18 2.77  13 2.87  17 2.90  16 2.97
                             7 2.98   9 2.99  14 3.04  15 3.04   5 3.16
  11  0.307  0.626  0.985-  20 2.16   1 2.25   2 2.47   4 2.56  19 2.77  14 2.87  17 2.90  16 2.97
                             7 2.98   9 2.99  15 3.04  13 3.04   6 3.16
  12  0.985  0.307  0.626-  18 2.16   2 2.25   3 2.47   5 2.56  20 2.77  15 2.87  17 2.90  16 2.97
                             7 2.98   9 2.99  14 3.04  13 3.04   4 3.16
  13  0.374  0.015  0.693-  19 2.16   6 2.25   4 2.47   3 2.56  18 2.77  10 2.87  16 2.90  17 2.97
                             8 2.98   9 2.99  11 3.04  12 3.04   2 3.16
  14  0.693  0.374  0.015-  20 2.16   4 2.25   5 2.47   1 2.56  19 2.77  11 2.87  16 2.90  17 2.97
                             8 2.98   9 2.99  12 3.04  10 3.04   3 3.16
  15  0.015  0.693  0.374-  18 2.16   5 2.25   6 2.47   2 2.56  20 2.77  12 2.87  16 2.90  17 2.97
                             8 2.98   9 2.99  11 3.04  10 3.04   1 3.16
  16  0.628  0.628  0.628-   8 1.80   5 1.98   4 1.98   6 1.98   3 2.51   1 2.51   2 2.51  13 2.90
                            14 2.90  15 2.90  10 2.97  11 2.97  12 2.97  17 3.01
  17  0.372  0.372  0.372-   7 1.80   2 1.98   1 1.98   3 1.98   6 2.51   4 2.51   5 2.51  10 2.90
                            11 2.90  12 2.90  13 2.97  14 2.97  15 2.97  16 3.01
  18  0.000  0.000  0.500-  12 2.16  15 2.16   7 2.60   8 2.60  13 2.77  10 2.77   3 2.80   6 2.80

[...]

  20  0.000  0.500  0.000-  11 2.16  14 2.16   7 2.60   8 2.60  12 2.77  15 2.77   2 2.80   5 2.80

  LATTYP: Found a trigonal (rhomboedric) cell.
 ALAT       =     6.3878664294
 COS(alpha) =     0.0649730242

  Lattice vectors:

 A1 = (   6.3878670000,   0.0000000000,   0.0000000000)
 A2 = (   0.4150390000,   6.3743690000,   0.0000000000)
 A3 = (   0.4150390000,   0.3888940000,   6.3624950000)

Analysis of symmetry for initial positions (statically):
 Subroutine PRICEL returns:
 Original cell was already a primitive cell.

 Routine SETGRP: Setting up the symmetry group for a
 trigonal (rhombohedral) supercell.

 Subroutine GETGRP returns: Found  6 space group operations
 (whereof  6 operations were pure point group operations)
 out of a pool of 12 trial point group operations.

The static configuration has the point symmetry S_6 .

Analysis of symmetry for dynamics (positions and initial velocities):
 Subroutine PRICEL returns:
 Original cell was already a primitive cell.

 Routine SETGRP: Setting up the symmetry group for a
 trigonal (rhombohedral) supercell.

 Subroutine GETGRP returns: Found  6 space group operations
 (whereof  6 operations were pure point group operations)
 out of a pool of 12 trial point group operations.

The dynamic configuration has the point symmetry S_6 .

 Subroutine INISYM returns: Found  6 space group operations
 (whereof  6 operations are pure point group operations),
 and found     1 'primitive' translations

 KPOINTS: EA

Automatic generation of k-mesh.
Space group operators:
 irot       det(A)        alpha          n_x          n_y          n_z        tau_x        tau_y        tau_z
    1     1.000000     0.000000     1.000000     0.000000     0.000000     0.000000     0.000000     0.000000
    2    -1.000000     0.000000     1.000000     0.000000     0.000000     0.000000     0.000000     0.000000
    3     1.000000   120.000000    -0.613717    -0.575057    -0.540981     0.000000     0.000000     0.000000
    4    -1.000000   120.000000    -0.613717    -0.575057    -0.540981     0.000000     0.000000     0.000000
    5     1.000000   120.000000     0.613717     0.575057     0.540981     0.000000     0.000000     0.000000
    6    -1.000000   120.000000     0.613717     0.575057     0.540981     0.000000     0.000000     0.000000

 Subroutine IBZKPT returns following result:

 Found      4 irreducible k-points:

 Following reciprocal coordinates:
            Coordinates               Weight
  0.000000  0.000000  0.000000      1.000000
  0.500000 -0.000000 -0.000000      3.000000
  0.500000  0.500000 -0.000000      3.000000
  0.500000  0.500000  0.500000      1.000000

 Following cartesian coordinates:
            Coordinates               Weight
  0.000000  0.000000  0.000000      1.000000
  0.078273 -0.005096 -0.004794      3.000000
  0.078273  0.073343 -0.009589      3.000000
  0.078273  0.073343  0.068997      1.000000

 SYSTEM =  unknown system
 POSCAR =  EA0     6.388  6.388  6.388 86.27 86.27

 Startparameter for this run:
   NWRITE =      2    write-flag & timer
   PREC   = normal    normal or accurate (medium, high low for compatibility)
   ISTART =      0    job   : 0-new  1-cont  2-samecut
   ICHARG =      2    charge: 1-file 2-atom 10-const
   ISPIN  =      1    spin polarized calculation?
   LNONCOLLINEAR =      F non collinear calculations
   LSORBIT =      F    spin-orbit coupling
   INIWAV =      1    electr: 0-lowe 1-rand  2-diag
   LASPH  =      F    aspherical Exc in radial PAW
   METAGGA=      F    non-selfconsistent MetaGGA calc.

 Electronic Relaxation 1
   ENCUT  =  267.9 eV  19.69 Ry    4.44 a.u.   8.52  8.52  8.52*2*pi/ulx,y,z
   ENINI  =  267.9     initial cutoff
   ENAUG  =  511.4 eV  augmentation charge cutoff
   NELM   =     60;   NELMIN=  2; NELMDL= -5     # of ELM steps
   EDIFF  = 0.1E-04   stopping-criterion for ELM
   LREAL  =      F    real-space projection
   NLSPLINE    = F    spline interpolate recip. space projectors
   LCOMPAT=      F    compatible to vasp.4.4
   GGA_COMPAT  = T    GGA compatible to vasp.4.4-vasp.4.6
   LMAXPAW     = -100 max onsite density
   LMAXMIX     =    2 max onsite mixed and CHGCAR
   VOSKOWN=      0    Vosko Wilk Nusair interpolation
   ROPT   =    0.00000   0.00000
 Ionic relaxation
   EDIFFG = -.1E-01   stopping-criterion for IOM
   NSW    =    500    number of steps for IOM
   NBLOCK =      1;   KBLOCK =    500    inner block; outer block
   IBRION =      2    ionic relax: 0-MD 1-quasi-New 2-CG
   NFREE  =      1    steps in history (QN), initial steepest desc. (CG)
   ISIF   =      3    stress and relaxation
   IWAVPR =     11    prediction:  0-non 1-charg 2-wave 3-comb
   ISYM   =      2    0-nonsym 1-usesym 2-fastsym
   LCORR  =      T    Harris-Foulkes like correction to forces

   POTIM  = 0.5000    time-step for ionic-motion
   TEIN   =    0.0    initial temperature
   TEBEG  =    0.0;   TEEND  =   0.0 temperature during run
   SMASS  =  -3.00    Nose mass-parameter (am)
   estimated Nose-frequenzy (Omega)   =  0.10E-29 period in steps =****** mass=  -0.932E-27a.u.
   SCALEE = 1.0000    scale energy and forces
   NPACO  =    256;   APACO  = 16.0  distance and # of slots for P.C.
   PSTRESS=    0.0 pullay stress

  Mass of Ions in am
   POMASS =  50.94 55.85
  Ionic Valenz
   ZVAL   =   5.00  8.00
  Atomic Wigner-Seitz radii
  virtual crystal weights
   VCA    =   1.00  1.00
   NELECT =     109.0000    total number of electrons
   NUPDOWN=      -1.0000    fix difference up-down

 DOS related values:
   EMIN   =  10.00;   EMAX   =-10.00  energy-range for DOS
   EFERMI =   0.00
   ISMEAR =     0;   SIGMA  =   0.10  broadening in eV -4-tet -1-fermi 0-gaus

 Electronic relaxation 2 (details)
   IALGO  =     38    algorithm
   LDIAG  =      T    sub-space diagonalisation (order eigenvalues)
   LSUBROT=      F    optimize rotation matrix (better conditioning)
   TURBO    =      0    0=normal 1=particle mesh
   IRESTART =      0    0=no restart 2=restart with 2 vectors
   NREBOOT  =      0    no. of reboots
   NMIN     =      0    reboot dimension
   EREF     =   0.00    reference energy to select bands
   IMIX   =      4    mixing-type and parameters
     AMIX     =   0.40;   BMIX     =  1.00
     AMIX_MAG =   1.60;   BMIX_MAG =  1.00
     AMIN     =   0.10
     WC   =   100.;   INIMIX=   1;  MIXPRE=   1;  MAXMIX= -45

 Intra band minimization:
   WEIMIN = 0.0010     energy-eigenvalue tresh-hold
   EBREAK =  0.37E-07  absolut break condition
   DEPER  =   0.30     relativ break condition

   TIME   =   0.40     timestep for ELM

  volume/ion in A,a.u.               =      12.95        87.42
  Fermi-wavevector in a.u.,A,eV,Ry     =   1.226714  2.318154 20.474433  1.504828
  Thomas-Fermi vector in A             =   2.361705

 Write flags
   LWAVE        =      F    write WAVECAR
   LDOWNSAMPLE  =      F    k-point downsampling of WAVECAR
   LCHARG       =      F    write CHGCAR
   LVTOT        =      F    write LOCPOT, total local potential
   LVHAR        =      F    write LOCPOT, Hartree potential only
   LELF         =      F    write electronic localiz. function (ELF)
   LORBIT       =      0    0 simple, 1 ext, 2 COOP (PROOUT), +10 PAW based schemes

 Dipole corrections
   LMONO  =      F    monopole corrections only (constant potential shift)
   LDIPOL =      F    correct potential (dipole corrections)
   IDIPOL =      0    1-x, 2-y, 3-z, 4-all directions
   EPSILON=  1.0000000 bulk dielectric constant

 Exchange correlation treatment:
   GGA     =    --    GGA type
   VOSKOWN=      0    Vosko Wilk Nusair interpolation
   LHFCALC =     F    Hartree Fock is set to
[...]
 g(Force)  = 0.190E+01   g(Stress)= 0.432E+01 ortho     =-0.698E+00
 gamma     =   0.12575
 trial     =   0.91704
 opt step  =   1.38117  (harmonic =   1.54762) maximal distance =0.20703988
 next E    =  -164.465609   (d E  =  -4.68651)

[...]

 d Force = 0.6502689E+00[ 0.476E+00, 0.824E+00]  d Energy = 0.5367420E+00 0.114E+00
 d Force =-0.3553232E+01[-0.836E+01, 0.126E+01]  d Ewald  = 0.1069783E+03-0.111E+03

[...]

 d Force = 0.6900180E+00[-0.868E-01, 0.147E+01]  d Energy = 0.1863457E+01-0.117E+01
 d Force =-0.1690565E+02[-0.350E+02, 0.115E+01]  d Ewald  =-0.4780387E+02 0.309E+02

[...]

 d Force =-0.7879983E-01[-0.129E+00,-0.281E-01]  d Energy = 0.5631596E-01-0.135E+00
 d Force =-0.1042582E+02[-0.114E+02,-0.943E+01]  d Ewald  =-0.1874024E+02 0.831E+01

[...]

 d Force = 0.6902740E+00[ 0.516E+00, 0.864E+00]  d Energy = 0.6599774E+00 0.303E-01
 d Force = 0.2063663E+02[ 0.180E+02, 0.233E+02]  d Ewald  =-0.3332528E+02 0.540E+02

[...]

 Conjugate gradient step on ions:
 trial-energy change:   -0.468879  1 .order   -0.466530   -0.554088   -0.378972
  (g-gl).g = 0.127E+01      g.g   = 0.132E+01  gl.gl    = 0.113E+01
 g(Force)  = 0.299E+00   g(Stress)= 0.102E+01 ortho     = 0.192E-01
 gamma     =   1.12367
 trial     =   0.41255
 opt step  =   1.14263  (harmonic =   1.30536) maximal distance =0.11176298
 next E    =  -167.848720   (d E  =  -0.81723)

[...]

 d Force = 0.3667596E+00[ 0.307E+00, 0.426E+00]  d Energy = 0.3638535E+00 0.291E-02
 d Force =-0.2930163E+00[-0.155E+01, 0.962E+00]  d Ewald  = 0.8064746E+01-0.836E+01

[...]

 d Force = 0.2286103E+00[ 0.922E-01, 0.365E+00]  d Energy = 0.2074541E+00 0.212E-01
 d Force =-0.3923768E+01[-0.600E+01,-0.185E+01]  d Ewald  = 0.6180864E+01-0.101E+02

[...]

 d Force = 0.1188754E-02[ 0.102E-02, 0.136E-02]  d Energy = 0.1325221E-02-0.136E-03
 d Force =-0.2680961E+00[-0.271E+00,-0.265E+00]  d Ewald  =-0.7539699E+00 0.486E+00

[...]

 d Force =-0.2849528E-03[-0.345E-02, 0.288E-02]  d Energy = 0.6792320E-04-0.353E-03
 d Force =-0.2348789E+01[-0.245E+01,-0.225E+01]  d Ewald  =-0.2833248E+00-0.207E+01

[...]

 d Force =-0.1926458E-02[-0.224E-02,-0.161E-02]  d Energy = 0.4102110E-03-0.234E-02
 d Force = 0.2277314E+00[ 0.208E+00, 0.248E+00]  d Ewald  =-0.1573341E+01 0.180E+01

[...]

 d Force = 0.3187270E-03[-0.712E-02, 0.776E-02]  d Energy = 0.1891028E-02-0.157E-02
 d Force = 0.1456169E+01[ 0.124E+01, 0.168E+01]  d Ewald  = 0.3003110E+01-0.155E+01

[...]

 d Force = 0.1337911E-02[-0.522E-03, 0.320E-02]  d Energy = 0.1088186E-02 0.250E-03
 d Force =-0.6004303E+00[-0.645E+00,-0.555E+00]  d Ewald  =-0.1293520E+01 0.693E+00

[...]

 d Force = 0.7278095E-03[ 0.475E-03, 0.981E-03]  d Energy = 0.6285373E-03 0.993E-04
 d Force = 0.3853551E-02[-0.129E-03, 0.784E-02]  d Ewald  =-0.4190000E+01 0.419E+01

[...]

 d Force =-0.1475623E-03[-0.165E-03,-0.130E-03]  d Energy = 0.8394740E-04-0.232E-03
 d Force =-0.2670091E-03[-0.567E-03, 0.329E-04]  d Ewald  = 0.1151807E+01-0.115E+01

[...]

 Conjugate gradient step on ions:
 trial-energy change:   -0.000250  1 .order   -0.000255   -0.000407   -0.000103
  (g-gl).g = 0.486E-03      g.g   = 0.611E-03  gl.gl    = 0.442E-03
 g(Force)  = 0.292E-03   g(Stress)= 0.319E-03 ortho     = 0.227E-04
 gamma     =   1.10094
 trial     =   0.63951
 opt step  =   0.85540  (harmonic =   0.85540) maximal distance =0.00216968
 next E    =  -169.807869   (d E  =  -0.00027)

[...]

 d Force = 0.4477565E-04[ 0.397E-04, 0.499E-04]  d Energy = 0.1734555E-04 0.274E-04
 d Force = 0.4899540E-01[ 0.489E-01, 0.491E-01]  d Ewald  = 0.4520023E+00-0.403E+00

[...]

 d Force = 0.5437425E-04[ 0.294E-04, 0.793E-04]  d Energy =-0.6509115E-04 0.119E-03
 d Force = 0.9733872E-01[ 0.969E-01, 0.978E-01]  d Ewald  = 0.9035165E+00-0.806E+00

[...]

 d Force =-0.3740345E-04[-0.506E-04,-0.243E-04]  d Energy = 0.6651741E-04-0.104E-03
 d Force =-0.8021576E-01[-0.805E-01,-0.799E-01]  d Ewald  =-0.7449165E+00 0.665E+00

[...]

 d Force =-0.8034836E-05[-0.839E-05,-0.768E-05]  d Energy =-0.1312752E-05-0.672E-05
 d Force =-0.1223028E-01[-0.122E-01,-0.122E-01]  d Ewald  =-0.1131503E+00 0.101E+00

[...]

 d Force = 0.1754860E-03[ 0.126E-03, 0.225E-03]  d Energy = 0.2036236E-03-0.281E-04
 d Force = 0.1648569E+00[ 0.164E+00, 0.166E+00]  d Ewald  =-0.2811566E+00 0.446E+00

[...]

 d Force = 0.6804806E-04[-0.145E-04, 0.151E-03]  d Energy = 0.6912301E-04-0.107E-05
 d Force = 0.1938664E+00[ 0.192E+00, 0.196E+00]  d Ewald  =-0.3388285E+00 0.533E+00

[...]

 d Force = 0.1372310E-03[ 0.369E-04, 0.238E-03]  d Energy = 0.1069727E-03 0.303E-04
 d Force =-0.9806181E-01[-0.995E-01,-0.966E-01]  d Ewald  =-0.3506197E+00 0.253E+00

[...]

 d Force = 0.4437263E-04[ 0.995E-05, 0.788E-04]  d Energy = 0.2352817E-05 0.420E-04
 d Force =-0.3284682E-01[-0.338E-01,-0.318E-01]  d Ewald  = 0.1819845E+01-0.185E+01

 Conjugate gradient step on ions:
 trial-energy change:   -0.000002  1 .order    0.000002   -0.000238    0.000243
  (g-gl).g = 0.227E-03      g.g   = 0.228E-03  gl.gl    = 0.316E-03
 g(Force)  = 0.516E-04   g(Stress)= 0.176E-03 ortho     =-0.176E-04
 gamma     =   0.71648
 trial     =   1.10545
 opt step  =   0.54758  (harmonic =   0.54758) maximal distance =0.00060215
 next E    =  -169.808509   (d E  =  -0.00006)

[...]

 Broyden mixing:
  rms(total) = 0.59651E-02    rms(broyden)= 0.48617E-02
  rms(prec ) = 0.10308E-01
  weight for this iteration     100.00
  WARNING: grid for Broyden might be to small

[...]

 eigenvalue-minimisations  :   872
 total energy-change (2. order) :-0.1009319E-03  (-0.1906064E-03)
 number of electron     109.0000555 magnetization
 augmentation part       43.7915301 magnetization

[...]

 Broyden mixing:
  rms(total) = 0.34926E-02    rms(broyden)= 0.34891E-02
  rms(prec ) = 0.67721E-02
  weight for this iteration     100.00

 eigenvalues of (default mixing * dielectric matrix)
  average eigenvalue GAMMA=   0.6072
  1.4225  0.6929  0.1318  0.1816

[...]

--------------------------------------- Iteration     64(   6)  ---------------------------------------

 eigenvalue-minimisations  :   704
 total energy-change (2. order) : 0.2637863E-05  (-0.6890492E-05)
 number of electron     109.0000555 magnetization
 augmentation part       43.7894785 magnetization

 Free energy of the ion-electron system (eV)
  alpha Z        PSCENC =       548.04203775
  Ewald energy   TEWEN  =     -5238.30228920
  -Hartree energ DENC   =      -677.89365168
  -exchange      EXHF   =         0.00000000
  -V(xc)+E(xc)   XCENC  =      -768.99917472
  PAW double counting   =      7878.53486552    -7075.43445569
  entropy T*S    EENTRO =        -0.14461805
  eigenvalues    EBANDS =       476.90454560
  atomic energy  EATOM  =      4687.48422623
  Solvation  Ediel_sol  =         0.00000000
  free energy    TOTEN  =      -169.80851424 eV

  energy without entropy =     -169.66389619  energy(sigma->0) =     -169.73620521

 average (electrostatic) potential at core
  the test charge radii are     1.2064  1.0103
  (the norm of the test charge is              1.0000)
       1 -39.1331       2 -39.1331       3 -39.1331       4 -39.1331       5 -39.1331
       6 -39.1331       7 -39.3556       8 -39.3556       9 -39.0027      10 -39.1823
      11 -39.1823      12 -39.1823      13 -39.1823      14 -39.1823      15 -39.1823
      16 -39.3075      17 -39.3075      18 -42.9748      19 -42.9748      20 -42.9748

 E-fermi :   6.4935     XC(G=0): -12.5316     alpha+bet :-15.1270

[...]

 k-point     4 :       0.5000    0.5000    0.5000
  band No.  band energies     occupation
      1       1.0043      2.00000
      2       1.3261      2.00000
      3       2.3260      2.00000
      4       2.3260      2.00000
      5       2.5682      2.00000
      6       2.5923      2.00000
      7       2.5923      2.00000
      8       2.6787      2.00000
      9       2.8856      2.00000
     10       2.8856      2.00000
     11       3.1673      2.00000
     12       3.3299      2.00000
     13       3.3299      2.00000
     14       3.3515      2.00000
     15       3.3515      2.00000
     16       3.6519      2.00000
     17       3.7274      2.00000
     18       3.8280      2.00000
     19       3.8280      2.00000
     20       3.9787      2.00000
     21       3.9787      2.00000
     22       4.1304      2.00000
     23       4.1304      2.00000
     24       4.4097      2.00000
     25       4.4215      2.00000
     26       4.4215      2.00000
     27       4.4762      2.00000
     28       4.5846      2.00000
     29       4.5846      2.00000
     30       4.6425      2.00000
     31       4.6425      2.00000
     32       4.6580      2.00000
     33       4.7127      2.00000
     34       4.8583      2.00000
     35       5.1600      2.00000
     36       5.1870      2.00000
     37       5.1870      2.00000
     38       5.2295      2.00000
     39       5.2979      2.00000
     40       5.2979      2.00000
     41       5.6522      2.00000
     42       5.6522      2.00000
     43       5.6618      2.00000
     44       5.7381      2.00000
     45       5.7899      2.00000
     46       5.7899      2.00000
     47       5.8071      2.00000
     48       5.9071      2.00000
     49       5.9071      2.00000
     50       5.9437      2.00000
     51       6.0911      2.00000
     52       6.0911      2.00000
     53       6.1423      2.00000
     54       6.1423      2.00000
     55       6.3634      1.93431
     56       6.4501      1.46103
     57       6.8165      0.00000
     58       6.8165      0.00000
     59       6.9401      0.00000
     60       6.9401      0.00000
     61       7.0057      0.00000
     62       7.1893      0.00000
     63       7.1893      0.00000
     64       7.3775      0.00000
     65       7.3797      0.00000
     66       7.3797      0.00000
     67       7.4158      0.00000
     68       7.4816      0.00000

 soft charge-density along one line, spin component           1
         0         1         2         3         4         5         6         7         8         9
 total charge-density along one line

------------------------ aborting loop because EDIFF is reached ----------------------------------------

  FORCE on cell =-STRESS in cart. coord.  units (eV):
  Direction    XX          YY          ZZ          XY          YZ          ZX
  Alpha Z   548.04204   548.04204   548.04204
  Ewald   -1744.51899 -1746.20240 -1747.59551    12.92813    11.39595    12.16205
  Hartree   224.37787   226.14096   227.59992   -13.53925   -11.93462   -12.73696
  E(xc)    -500.24546  -499.93779  -499.68320    -2.36265    -2.08263    -2.22265
  Local     280.77892   279.97611   279.31179     6.16488     5.43425     5.79958
  n-local  -115.50454  -116.82841  -116.21087    -4.27076    -3.09739    -3.35818
  augment   448.67735   448.56707   448.47586     0.83661     0.73495     0.78583
  Kinetic   857.82590   860.46119   860.77542    -0.12693     1.31812    -1.66574
  Fock        0.00000     0.00000     0.00000     0.00000     0.00000     0.00000
  Total       0.12014     0.12258     0.12459    -0.01867    -0.01646    -0.01756
  in kB       0.73707     0.75199     0.76433    -0.11455    -0.10097    -0.10776

 VOLUME and BASIS-vectors are now :
  energy-cutoff  :      267.88
  volume of cell :      261.16
      direct lattice vectors                 reciprocal lattice vectors
     6.581094405  0.786612515  0.740000469     0.157932789 -0.026552180 -0.024978790
     1.212543854  6.516079469  0.740000422    -0.016234710  0.159324270 -0.024978779
     1.212543928  1.136161525  6.458794789    -0.016234708 -0.015212033  0.160551412

  length of vectors
     6.669120146  6.669119497  6.669119576     0.162085545  0.162085558  0.162085556

 FORCES acting on ions
    electron-ion (+dipol)            ewald-force                    non-local-force                 convergence-correction
   0.153E+02 0.278E+02 -.242E+02   -.159E+02 -.276E+02 0.252E+02   0.596E+00 -.145E+00 -.101E+01   -.332E-02 -.895E-02 0.163E-02
   -.214E+02 0.168E+02 0.292E+02   0.224E+02 -.174E+02 -.291E+02   -.978E+00 0.661E+00 -.826E-01   0.863E-03 -.338E-02 -.903E-02
   0.287E+02 -.233E+02 0.149E+02   -.286E+02 0.243E+02 -.156E+02   -.106E+00 -.973E+00 0.665E+00   -.915E-02 0.146E-02 -.282E-02
   -.153E+02 -.278E+02 0.242E+02   0.159E+02 0.276E+02 -.252E+02   -.596E+00 0.145E+00 0.101E+01   0.332E-02 0.895E-02 -.163E-02
   0.214E+02 -.168E+02 -.292E+02   -.224E+02 0.174E+02 0.291E+02   0.978E+00 -.661E+00 0.826E-01   -.863E-03 0.338E-02 0.903E-02
   -.287E+02 0.233E+02 -.149E+02   0.286E+02 -.243E+02 0.156E+02   0.106E+00 0.973E+00 -.665E+00   0.915E-02 -.146E-02 0.282E-02
   0.598E+01 0.560E+01 0.527E+01   -.558E+01 -.523E+01 -.492E+01   -.382E+00 -.357E+00 -.336E+00   -.110E-01 -.103E-01 -.970E-02
   -.598E+01 -.560E+01 -.527E+01   0.558E+01 0.523E+01 0.492E+01   0.382E+00 0.357E+00 0.336E+00   0.110E-01 0.103E-01 0.970E-02
   -.124E-12 -.574E-13 -.670E-13   -.386E-13 0.179E-13 0.125E-13   -.133E-21 -.137E-22 -.115E-21   0.456E-13 0.375E-12 -.252E-13
   -.183E+02 -.514E+00 -.255E+02   0.188E+02 0.307E+00 0.252E+02   -.516E+00 0.214E+00 0.232E+00   0.101E-01 -.776E-03 0.108E-02
   -.266E+02 -.166E+02 0.104E+01   0.264E+02 0.172E+02 -.123E+01   0.210E+00 -.530E+00 0.200E+00   0.168E-02 0.100E-01 -.840E-03
   -.170E+01 -.265E+02 -.167E+02   0.153E+01 0.263E+02 0.172E+02   0.180E+00 0.199E+00 -.542E+00   -.115E-03 0.170E-02 0.101E-01
   0.183E+02 0.514E+00 0.255E+02   -.188E+02 -.307E+00 -.252E+02   0.516E+00 -.214E+00 -.232E+00   -.101E-01 0.776E-03 -.108E-02
   0.266E+02 0.166E+02 -.104E+01   -.264E+02 -.172E+02 0.123E+01   -.210E+00 0.530E+00 -.200E+00   -.168E-02 -.100E-01 0.840E-03
   0.170E+01 0.265E+02 0.167E+02   -.153E+01 -.263E+02 -.172E+02   -.180E+00 -.199E+00 0.542E+00   0.115E-03 -.170E-02 -.101E-01
   0.223E+02 0.209E+02 0.196E+02   -.241E+02 -.226E+02 -.213E+02   0.188E+01 0.176E+01 0.166E+01   -.853E-02 -.799E-02 -.752E-02
   -.223E+02 -.209E+02 -.196E+02   0.241E+02 0.226E+02 0.213E+02   -.188E+01 -.176E+01 -.166E+01   0.853E-02 0.799E-02 0.752E-02
   0.290E-14 -.109E-12 0.327E-12   0.176E-13 -.883E-14 -.915E-14   0.199E-22 -.318E-22 0.826E-23   -.701E-12 0.152E-12 0.102E-12
   -.389E-13 -.465E-12 -.227E-11   -.220E-14 -.442E-13 0.622E-13   -.929E-23 0.327E-22 0.626E-23   -.556E-12 0.500E-12 -.406E-12
   0.427E-13 0.354E-12 -.405E-13   0.265E-13 -.145E-13 0.160E-13   -.130E-22 0.282E-22 0.506E-22   0.178E-12 -.693E-12 -.515E-13
   0.216E-11 0.812E-12 -.652E-11   -.185E-13 -.362E-14 0.194E-13   -.444E-15 -.666E-15 0.222E-15   -.731E-12 -.163E-12 -.107E-12

 POSITION                                       TOTAL-FORCE (eV/Angst)
      4.29964      4.76013      2.08800        -0.001523     -0.002818     -0.005544
      2.64886      4.13628      4.62388        -0.005792     -0.001149     -0.002475
      5.02943      2.32700      3.84647        -0.002911     -0.005615     -0.000995
      4.70654      3.67872      5.85080         0.001523      0.002818      0.005544
      6.35732      4.30258      3.31492         0.005792      0.001149      0.002475
      3.97675      6.11185      4.09232         0.002911      0.005615      0.000995
      1.36403      1.27811      1.20237         0.000714      0.000669      0.000629
      7.64215      7.16075      6.73643        -0.000714     -0.000669     -0.000629
      0.00000     -0.00000      0.00000         0.000000     -0.000000     -0.000000
      5.81858      7.01787      3.05398         0.003046      0.006657      0.002072
      3.84715      5.58041      6.81848         0.002667      0.002879      0.006518
      7.38109      3.37471      5.15402         0.006841      0.002227      0.002476
      3.18761      1.42098      4.88481        -0.003046     -0.006657     -0.002072
      5.15903      2.85845      1.12032        -0.002667     -0.002879     -0.006518
      1.62509      5.06414      2.78477        -0.006841     -0.002227     -0.002476
      6.26080      5.86641      5.51879        -0.000978     -0.000917     -0.000862
      2.74539      2.57244      2.42001         0.000978      0.000917      0.000862
      0.60627      0.56808      3.22940         0.000000     -0.000000     -0.000000
      3.29055      0.39331      0.37000         0.000000     -0.000000     -0.000000
      0.60627      3.25804      0.37000         0.000000     -0.000000     -0.000000
    total drift:                                0.000000      0.000000     -0.000000

  FREE ENERGIE OF THE ION-ELECTRON SYSTEM (eV)
  free  energy   TOTEN  =      -169.80851424 eV

  energy  without entropy=     -169.66389619  energy(sigma->0) =     -169.73620521

 d Force =-0.1092683E-04[-0.168E-04,-0.502E-05]  d Energy = 0.6146049E-04-0.724E-04
 d Force = 0.1682852E-01[ 0.166E-01, 0.171E-01]  d Ewald  =-0.9183023E+00 0.935E+00

 reached required accuracy - stopping structural energy minimisation