 vasp.5.4.4.18Apr17-6-g9f103f2a35 (build Jul 11 2019 11:52:51) complex

 executed on             LinuxIFC date 2023.11.29  17:04:20

 INCAR:
 POTCAR:    PAW_PBE V 08Apr2002
 POTCAR:    PAW_PBE Fe 06Sep2000
 POTCAR:    PAW_PBE V 08Apr2002
   VRHFIN =V: p6 d4 s1

   TITEL  = PAW_PBE V 08Apr2002
   POMASS =   50.941; ZVAL   =    5.000    mass and valenz
   ENMAX  =  192.543; ENMIN  =  144.408 eV

 POTCAR:    PAW_PBE Fe 06Sep2000
   VRHFIN =Fe:  d7 s1

   TITEL  = PAW_PBE Fe 06Sep2000
   POMASS =   55.847; ZVAL   =    8.000    mass and valenz
   ENMAX  =  267.882; ENMIN  =  200.911 eV

  PAW_PBE V 08Apr2002                   :
  PAW_PBE Fe 06Sep2000                  :

 POSCAR: EA0     6.415  6.615  6.615 72.36 81.53
  positions in direct lattice
 exchange correlation table for  LEXCH =        8
   RHO(1)=    0.500       N(1)  =     2000
   RHO(2)=  100.500       N(2)  =     4000

 ion  position               nearest neighbor table
   1  0.588  0.828  0.382-   8 2.16   4 2.24  20 2.45  18 2.62  13 2.65  19 2.87   9 2.94   6 2.97
                            12 3.06  14 3.13  17 3.17
   2  0.412  0.382  0.828-   7 2.16   3 2.24  19 2.45  18 2.62  14 2.65  20 2.87  10 2.94   5 2.97
                            11 3.06  13 3.13  17 3.17
   3  0.412  0.172  0.618-   6 2.16   2 2.24  19 2.45  18 2.62  11 2.65  20 2.87  10 2.94   8 2.97
                            14 3.06  12 3.13  17 3.17
   4  0.588  0.618  0.172-   5 2.16   1 2.24  20 2.45  18 2.62  12 2.65  19 2.87   9 2.94   7 2.97
                            13 3.06  11 3.13  17 3.17
   5  0.818  0.584  0.917-  15 1.95  12 2.12   4 2.16  13 2.27  10 2.74  11 2.84   7 2.95   2 2.97
                             6 3.03  17 3.06  20 3.12
   6  0.182  0.917  0.584-  15 1.95  11 2.12   3 2.16  14 2.27   9 2.74  12 2.84   8 2.95   1 2.97
                             5 3.03  17 3.06  19 3.12
   7  0.182  0.416  0.083-  16 1.95  14 2.12   2 2.16  11 2.27   9 2.74  13 2.84   5 2.95   4 2.97
                             8 3.03  17 3.06  19 3.12
   8  0.818  0.083  0.416-  16 1.95  13 2.12   1 2.16  12 2.27  10 2.74  14 2.84   6 2.95   3 2.97
                             7 3.03  17 3.06  20 3.12
   9  0.170  0.739  0.261-  19 2.19  14 2.33  11 2.33  16 2.40  15 2.40  17 2.54  18 2.54  20 2.65
                             7 2.74   6 2.74   4 2.94   1 2.94
  10  0.830  0.261  0.739-  20 2.19  12 2.33  13 2.33  15 2.40  16 2.40  17 2.54  18 2.54  19 2.65
                             5 2.74   8 2.74   2 2.94   3 2.94
  11  0.252  0.775  0.894-   6 2.12   7 2.27   9 2.33  18 2.35  17 2.51   3 2.65  15 2.78   5 2.84
                             2 3.06  12 3.09   4 3.13
  12  0.748  0.894  0.775-   5 2.12   8 2.27  10 2.33  18 2.35  17 2.51   4 2.65  15 2.78   6 2.84
                             1 3.06  11 3.09   3 3.13
  13  0.748  0.225  0.106-   8 2.12   5 2.27  10 2.33  18 2.35  17 2.51   1 2.65  16 2.78   7 2.84
                             4 3.06  14 3.09   2 3.13
  14  0.252  0.106  0.225-   7 2.12   6 2.27   9 2.33  18 2.35  17 2.51   2 2.65  16 2.78   8 2.84
                             3 3.06  13 3.09   1 3.13
  15  0.000  0.635  0.635-   6 1.95   5 1.95  19 2.08  20 2.08  10 2.40   9 2.40  12 2.78  11 2.78
                            16 2.88
  16  0.000  0.365  0.365-   8 1.95   7 1.95  20 2.08  19 2.08   9 2.40  10 2.40  14 2.78  13 2.78
                            15 2.88
  17  0.000  0.000  0.000-  11 2.51  13 2.51  12 2.51  14 2.51   9 2.54  10 2.54   5 3.06   7 3.06
                             6 3.06   8 3.06   2 3.17   4 3.17   3 3.17   1 3.17
  18  0.500  0.000  0.000-  11 2.35  13 2.35  12 2.35  14 2.35   9 2.54  10 2.54   2 2.62   4 2.62
                             3 2.62   1 2.62
  19  0.223  0.473  0.527-  15 2.08  16 2.08   9 2.19   3 2.45   2 2.45  10 2.65   1 2.87   4 2.87
                            20 3.00   6 3.12   7 3.12
  20  0.777  0.527  0.473-  16 2.08  15 2.08  10 2.19   1 2.45   4 2.45   9 2.65   3 2.87   2 2.87
                            19 3.00   8 3.12   5 3.12

  LATTYP: Found a base centered monoclinic cell.
 ALAT       =    29.3876365459
 B/A-ratio  =     0.3633970304
 C/A-ratio  =     0.6229604007
 COS(beta)  =    -0.9360360653

  Lattice vectors:

 A1 = (   9.3384870000,  -2.1989560000,  12.3441420000)
 A2 = (   9.3384870000, -10.9141550000,   6.1720710000)
 A3 = ( -10.3129420000,   8.7420740000, -12.3441420000)

Analysis of symmetry for initial positions (statically):
 Subroutine PRICEL returns:
 Original cell was already a primitive cell.

 Routine SETGRP: Setting up the symmetry group for a
 base centered monoclinic supercell.

 Subroutine GETGRP returns: Found  4 space group operations
 (whereof  4 operations were pure point group operations)
 out of a pool of  4 trial point group operations.

The static configuration has the point symmetry C_2h.

Analysis of symmetry for dynamics (positions and initial velocities):
 Subroutine PRICEL returns:
 Original cell was already a primitive cell.

 Routine SETGRP: Setting up the symmetry group for a
 base centered monoclinic supercell.

 Subroutine GETGRP returns: Found  4 space group operations
 (whereof  4 operations were pure point group operations)
 out of a pool of  4 trial point group operations.

The dynamic configuration has the point symmetry C_2h.

 Subroutine INISYM returns: Found  4 space group operations
 (whereof  4 operations are pure point group operations),
 and found     1 'primitive' translations

 KPOINTS: EA

Automatic generation of k-mesh.
Space group operators:
 irot       det(A)        alpha          n_x          n_y          n_z        tau_x        tau_y        tau_z
    1     1.000000     0.000000     1.000000     0.000000     0.000000     0.000000     0.000000     0.000000
    2    -1.000000     0.000000     1.000000     0.000000     0.000000     0.000000     0.000000     0.000000
    3     1.000000   180.000000     0.000000    -0.816077    -0.577943     0.000000     0.000000     0.000000
    4    -1.000000   180.000000     0.000000    -0.816077    -0.577943     0.000000     0.000000     0.000000

 Subroutine IBZKPT returns following result:

 Found      6 irreducible k-points:

 Following reciprocal coordinates:
            Coordinates               Weight
  0.000000  0.000000  0.000000      1.000000
  0.500000  0.000000 -0.000000      1.000000
  0.000000  0.500000 -0.000000      2.000000
  0.500000  0.500000  0.000000      2.000000
  0.000000  0.500000  0.500000      1.000000
  0.500000  0.500000  0.500000      1.000000

 Following cartesian coordinates:
            Coordinates               Weight
  0.000000  0.000000  0.000000      1.000000
  0.077941  0.011608 -0.016390      1.000000
  0.000000  0.076416 -0.026892      2.000000
  0.077941  0.088024 -0.043283      2.000000
  0.000000  0.076416  0.054118      1.000000
  0.077941  0.088024  0.037727      1.000000

 SYSTEM =  unknown system
 POSCAR =  EA0     6.415  6.615  6.615 72.36 81.53

 Startparameter for this run:
   NWRITE =      2    write-flag & timer
   PREC   = normal    normal or accurate (medium, high low for compatibility)
   ISTART =      0    job   : 0-new  1-cont  2-samecut
   ICHARG =      2    charge: 1-file 2-atom 10-const
   ISPIN  =      1    spin polarized calculation?
   LNONCOLLINEAR =      F non collinear calculations
   LSORBIT =      F    spin-orbit coupling
   INIWAV =      1    electr: 0-lowe 1-rand  2-diag
   LASPH  =      F    aspherical Exc in radial PAW
   METAGGA=      F    non-selfconsistent MetaGGA calc.

 Electronic Relaxation 1
   ENCUT  =  267.9 eV  19.69 Ry    4.44 a.u.   8.56  8.83  8.83*2*pi/ulx,y,z
   ENINI  =  267.9     initial cutoff
   ENAUG  =  511.4 eV  augmentation charge cutoff
   NELM   =     60;   NELMIN=  2; NELMDL= -5     # of ELM steps
   EDIFF  = 0.1E-04   stopping-criterion for ELM
   LREAL  =      F    real-space projection
   NLSPLINE    = F    spline interpolate recip. space projectors
   LCOMPAT=      F    compatible to vasp.4.4
   GGA_COMPAT  = T    GGA compatible to vasp.4.4-vasp.4.6
   LMAXPAW     = -100 max onsite density
   LMAXMIX     =    2 max onsite mixed and CHGCAR
   VOSKOWN=      0    Vosko Wilk Nusair interpolation
   ROPT   =    0.00000   0.00000
 Ionic relaxation
   EDIFFG = -.1E-01   stopping-criterion for IOM
   NSW    =    500    number of steps for IOM
   NBLOCK =      1;   KBLOCK =    500    inner block; outer block
   IBRION =      2    ionic relax: 0-MD 1-quasi-New 2-CG
   NFREE  =      1    steps in history (QN), initial steepest desc. (CG)
   ISIF   =      3    stress and relaxation
   IWAVPR =     11    prediction:  0-non 1-charg 2-wave 3-comb
   ISYM   =      2    0-nonsym 1-usesym 2-fastsym
   LCORR  =      T    Harris-Foulkes like correction to forces

   POTIM  = 0.5000    time-step for ionic-motion
   TEIN   =    0.0    initial temperature
   TEBEG  =    0.0;   TEEND  =   0.0 temperature during run
   SMASS  =  -3.00    Nose mass-parameter (am)
   estimated Nose-frequenzy (Omega)   =  0.10E-29 period in steps =****** mass=  -0.940E-27a.u.
   SCALEE = 1.0000    scale energy and forces
   NPACO  =    256;   APACO  = 16.0  distance and # of slots for P.C.
   PSTRESS=    0.0 pullay stress

  Mass of Ions in am
   POMASS =  50.94 55.85
  Ionic Valenz
   ZVAL   =   5.00  8.00
  Atomic Wigner-Seitz radii
  virtual crystal weights
   VCA    =   1.00  1.00
   NELECT =     109.0000    total number of electrons
   NUPDOWN=      -1.0000    fix difference up-down

 DOS related values:
   EMIN   =  10.00;   EMAX   =-10.00  energy-range for DOS
   EFERMI =   0.00
   ISMEAR =     0;   SIGMA  =   0.10  broadening in eV -4-tet -1-fermi 0-gaus

 Electronic relaxation 2 (details)
   IALGO  =     38    algorithm
   LDIAG  =      T    sub-space diagonalisation (order eigenvalues)
   LSUBROT=      F    optimize rotation matrix (better conditioning)
   TURBO    =      0    0=normal 1=particle mesh
   IRESTART =      0    0=no restart 2=restart with 2 vectors
   NREBOOT  =      0    no. of reboots
   NMIN     =      0    reboot dimension
   EREF     =   0.00    reference energy to select bands
   IMIX   =      4    mixing-type and parameters
     AMIX     =   0.40;   BMIX     =  1.00
     AMIX_MAG =   1.60;   BMIX_MAG =  1.00
     AMIN     =   0.10
     WC   =   100.;   INIMIX=   1;  MIXPRE=   1;  MAXMIX= -45

 Intra band minimization:
   WEIMIN = 0.0010     energy-eigenvalue tresh-hold
   EBREAK =  0.37E-07  absolut break condition
   DEPER  =   0.30     relativ break condition

   TIME   =   0.40     timestep for ELM

  volume/ion in A,a.u.               =      12.95        87.42
  Fermi-wavevector in a.u.,A,eV,Ry     =   1.226714  2.318154 20.474431  1.504828
  Thomas-Fermi vector in A             =   2.361705

 Write flags
   LWAVE        =      F    write WAVECAR
   LDOWNSAMPLE  =      F    k-point downsampling of WAVECAR
   LCHARG       =      F    write CHGCAR
   LVTOT        =      F    write LOCPOT, total local potential
   LVHAR        =      F    write LOCPOT, Hartree potential only
   LELF         =      F    write electronic localiz. function (ELF)
   LORBIT       =      0    0 simple, 1 ext, 2 COOP (PROOUT), +10 PAW based schemes

 Dipole corrections
[...]
 d Force = 0.1807073E+01[-0.125E+02, 0.161E+02]  d Ewald  = 0.9261480E+02-0.908E+02

[...]

 Conjugate gradient step on ions:
 trial-energy change:   -0.898461  1 .order   -0.919304   -1.467835   -0.370772
  (g-gl).g = 0.150E+01      g.g   = 0.124E+01  gl.gl    = 0.327E+01
 g(Force)  = 0.990E+00   g(Stress)= 0.254E+00 ortho     = 0.640E-01
 gamma     =   0.45748
 trial     =   1.15296
 opt step  =   1.61676  (harmonic =   1.54262) maximal distance =0.13406925
 next E    =  -168.214188   (d E  =  -0.97168)

[...]

 d Force =-0.3843170E-02[-0.394E-02,-0.375E-02]  d Energy = 0.1244213E-03-0.397E-02
 d Force =-0.1929287E+00[-0.194E+00,-0.192E+00]  d Ewald  =-0.1376873E+01 0.118E+01

[...]

 d Force = 0.3465581E-01[-0.195E-02, 0.713E-01]  d Energy = 0.1288586E+00-0.942E-01
 d Force = 0.4778726E+01[ 0.362E+01, 0.593E+01]  d Ewald  =-0.5887276E+01 0.107E+02

[...]

 d Force =-0.1213937E+00[-0.234E+00,-0.911E-02]  d Energy = 0.2818755E-01-0.150E+00
 d Force = 0.1820068E+01[-0.349E+01, 0.713E+01]  d Ewald  =-0.1918699E+02 0.210E+02

[...]

 d Force =-0.3920899E-01[-0.140E+00, 0.617E-01]  d Energy = 0.1179888E+00-0.157E+00
 d Force = 0.2657198E+01[ 0.140E+01, 0.391E+01]  d Ewald  = 0.2157496E+02-0.189E+02

[...]

 d Force = 0.2633290E-01[-0.248E-01, 0.774E-01]  d Energy = 0.6215893E-01-0.358E-01
 d Force = 0.1934169E+01[ 0.582E+00, 0.329E+01]  d Ewald  = 0.5584952E+01-0.365E+01

[...]

 d Force = 0.4095223E+00[ 0.113E+00, 0.706E+00]  d Energy = 0.4434234E+00-0.339E-01
 d Force =-0.5833058E+00[-0.701E+01, 0.584E+01]  d Ewald  = 0.3997254E+02-0.406E+02

[...]

 d Force = 0.3997974E+00[ 0.264E+00, 0.535E+00]  d Energy = 0.4012143E+00-0.142E-02
 d Force = 0.2026036E+01[-0.148E+01, 0.553E+01]  d Ewald  =-0.4646657E+02 0.485E+02

[...]

 d Force = 0.3524211E-01[ 0.325E-01, 0.379E-01]  d Energy = 0.7094910E-02 0.281E-01
 d Force =-0.2775396E+00[-0.350E+00,-0.205E+00]  d Ewald  =-0.7196401E+01 0.692E+01

[...]

 d Force = 0.3352739E+00[ 0.236E+00, 0.435E+00]  d Energy = 0.4164306E+00-0.812E-01
 d Force = 0.2285325E+01[-0.107E+01, 0.564E+01]  d Ewald  = 0.3636334E+02-0.341E+02

[...]

 d Force = 0.7822838E-01[ 0.321E-01, 0.124E+00]  d Energy = 0.6796113E-01 0.103E-01
 d Force =-0.1566259E+01[-0.256E+01,-0.574E+00]  d Ewald  = 0.1653807E+02-0.181E+02

[...]

 d Force = 0.3486199E-04[-0.839E-03, 0.909E-03]  d Energy = 0.9363331E-03-0.901E-03
 d Force =-0.4238991E+00[-0.442E+00,-0.406E+00]  d Ewald  = 0.1094258E+01-0.152E+01

[...]

 d Force =-0.4329010E-02[-0.186E-01, 0.998E-02]  d Energy = 0.1107599E-01-0.154E-01
 d Force =-0.3894054E+01[-0.424E+01,-0.355E+01]  d Ewald  = 0.2643322E+01-0.654E+01

[...]

 d Force = 0.8150772E-02[-0.476E-03, 0.168E-01]  d Energy = 0.1708143E-01-0.893E-02
 d Force =-0.2297181E+01[-0.244E+01,-0.215E+01]  d Ewald  =-0.3783190E+01 0.149E+01

[...]

 d Force =-0.8222610E-03[-0.152E-02,-0.129E-03]  d Energy = 0.7378683E-03-0.156E-02
 d Force =-0.6755990E+00[-0.686E+00,-0.665E+00]  d Ewald  =-0.1065095E+01 0.389E+00

[...]

 d Force = 0.1564771E-01[ 0.114E-01, 0.199E-01]  d Energy = 0.1482956E-01 0.818E-03
 d Force =-0.2145444E-01[-0.111E+00, 0.678E-01]  d Ewald  = 0.3678648E+01-0.370E+01

[...]

 d Force = 0.3811713E-02[ 0.274E-02, 0.489E-02]  d Energy = 0.3677237E-02 0.134E-03
 d Force = 0.1107848E+01[ 0.108E+01, 0.113E+01]  d Ewald  =-0.4499205E+01 0.561E+01

[...]

 d Force = 0.6328811E-02[-0.570E-03, 0.132E-01]  d Energy = 0.6662792E-02-0.334E-03
 d Force = 0.1532818E+01[ 0.128E+01, 0.179E+01]  d Ewald  = 0.2031956E+01-0.499E+00

[...]

 d Force = 0.9197543E-03[-0.405E-03, 0.224E-02]  d Energy = 0.1442137E-02-0.522E-03
 d Force = 0.8909585E+00[ 0.855E+00, 0.927E+00]  d Ewald  =-0.5174425E+01 0.607E+01

[...]

 d Force = 0.1310980E-04[-0.912E-04, 0.117E-03]  d Energy = 0.2618018E-03-0.249E-03
 d Force =-0.2508249E+00[-0.254E+00,-0.248E+00]  d Ewald  = 0.1507444E+01-0.176E+01

[...]

 d Force = 0.8095777E-05[ 0.815E-05, 0.804E-05]  d Energy =-0.3596033E-06 0.846E-05
 d Force = 0.2234985E-01[ 0.223E-01, 0.224E-01]  d Ewald  =-0.1326335E+00 0.155E+00

[...]

 d Force = 0.2547664E-04[ 0.861E-05, 0.423E-04]  d Energy = 0.3493854E-05 0.220E-04
 d Force =-0.8537463E-01[-0.856E-01,-0.851E-01]  d Ewald  = 0.3867665E+00-0.472E+00

[...]

 d Force = 0.7040228E-04[ 0.268E-04, 0.114E-03]  d Energy = 0.9096706E-04-0.206E-04
 d Force =-0.6618957E-01[-0.670E-01,-0.654E-01]  d Ewald  =-0.6715674E+00 0.605E+00

 Conjugate gradient step on ions:
 trial-energy change:   -0.000091  1 .order   -0.000095   -0.000147   -0.000043
  (g-gl).g = 0.174E-03      g.g   = 0.137E-03  gl.gl    = 0.204E-03
 g(Force)  = 0.767E-04   g(Stress)= 0.599E-04 ortho     =-0.263E-04
 gamma     =   0.85304
 trial     =   1.28632
 opt step  =   1.82226  (harmonic =   1.82226) maximal distance =0.00210989
 next E    =  -174.180471   (d E  =  -0.00010)

[...]

 d Force = 0.9636913E-05[ 0.809E-05, 0.112E-04]  d Energy =-0.3722866E-05 0.134E-04
 d Force =-0.2803790E-01[-0.282E-01,-0.279E-01]  d Ewald  =-0.2802203E+00 0.252E+00

[...]

 eigenvalue-minimisations  :  1472
 total energy-change (2. order) :-0.3742422E-05  (-0.1714325E-04)
 number of electron     109.0000059 magnetization
 augmentation part       43.2937316 magnetization

[...]

 Broyden mixing:
  rms(total) = 0.32050E-02    rms(broyden)= 0.32032E-02
  rms(prec ) = 0.67553E-02
  weight for this iteration     100.00

 eigenvalues of (default mixing * dielectric matrix)
  average eigenvalue GAMMA=   0.6412
  1.8999  0.3525  0.1821  0.1303

[...]

--------------------------------------- Iteration     73(   6)  ---------------------------------------

 eigenvalue-minimisations  :  1272
 total energy-change (2. order) : 0.6229074E-05  (-0.7681341E-05)
 number of electron     109.0000059 magnetization
 augmentation part       43.2949357 magnetization

 Free energy of the ion-electron system (eV)
  alpha Z        PSCENC =       550.97602399
  Ewald energy   TEWEN  =     -5285.07926759
  -Hartree energ DENC   =      -644.31156362
  -exchange      EXHF   =         0.00000000
  -V(xc)+E(xc)   XCENC  =      -768.91814908
  PAW double counting   =      7716.04218382    -6913.71704059
  entropy T*S    EENTRO =        -0.10341027
  eigenvalues    EBANDS =       483.44646610
  atomic energy  EATOM  =      4687.48422623
  Solvation  Ediel_sol  =         0.00000000
  free energy    TOTEN  =      -174.18053102 eV

  energy without entropy =     -174.07712075  energy(sigma->0) =     -174.12882589

 average (electrostatic) potential at core
  the test charge radii are     1.2064  1.0103
  (the norm of the test charge is              1.0000)
       1 -39.2594       2 -39.2594       3 -39.2594       4 -39.2594       5 -39.1811
       6 -39.1811       7 -39.1811       8 -39.1811       9 -39.0031      10 -39.0031
      11 -39.2251      12 -39.2251      13 -39.2251      14 -39.2251      15 -39.1678
      16 -39.1678      17 -39.1495      18 -43.0723      19 -42.8468      20 -42.8468

 E-fermi :   6.4349     XC(G=0): -12.5989     alpha+bet :-15.2080

[...]

 k-point     6 :       0.5000    0.5000    0.5000
  band No.  band energies     occupation
      1       1.6835      2.00000
      2       1.7585      2.00000
      3       1.8359      2.00000
      4       2.1054      2.00000
      5       2.1187      2.00000
      6       2.1235      2.00000
      7       2.7640      2.00000
      8       2.8923      2.00000
      9       2.9313      2.00000
     10       2.9675      2.00000
     11       3.1693      2.00000
     12       3.1842      2.00000
     13       3.3850      2.00000
     14       3.4775      2.00000
     15       3.7473      2.00000
     16       3.8716      2.00000
     17       3.9258      2.00000
     18       3.9835      2.00000
     19       3.9920      2.00000
     20       4.0379      2.00000
     21       4.0774      2.00000
     22       4.1666      2.00000
     23       4.2022      2.00000
     24       4.2704      2.00000
     25       4.3201      2.00000
     26       4.4327      2.00000
     27       4.4897      2.00000
     28       4.5684      2.00000
     29       4.6753      2.00000
     30       4.6911      2.00000
     31       4.9494      2.00000
     32       4.9957      2.00000
     33       5.0025      2.00000
     34       5.0807      2.00000
     35       5.0817      2.00000
     36       5.2811      2.00000
     37       5.3171      2.00000
     38       5.3286      2.00000
     39       5.3487      2.00000
     40       5.3666      2.00000
     41       5.5297      2.00000
     42       5.5629      2.00000
     43       5.6532      2.00000
     44       5.6727      2.00000
     45       5.6896      2.00000
     46       5.6944      2.00000
     47       5.9315      2.00000
     48       5.9808      2.00000
     49       6.0656      2.00000
     50       6.1555      1.99992
     51       6.1715      1.99980
     52       6.1990      1.99915
     53       6.3572      1.72848
     54       6.4260      1.10097
     55       6.4436      0.90210
     56       6.5133      0.26793
     57       6.5530      0.09496
     58       6.7367      0.00002
     59       6.7755      0.00000
     60       6.8116      0.00000
     61       6.9039      0.00000
     62       7.0351      0.00000
     63       7.1352      0.00000
     64       7.2462      0.00000
     65       7.2804      0.00000
     66       7.2842      0.00000
     67       7.2947      0.00000
     68       7.4761      0.00000

 soft charge-density along one line, spin component           1
         0         1         2         3         4         5         6         7         8         9
 total charge-density along one line

------------------------ aborting loop because EDIFF is reached ----------------------------------------

  FORCE on cell =-STRESS in cart. coord.  units (eV):
  Direction    XX          YY          ZZ          XY          YZ          ZX
  Alpha Z   550.97602   550.97602   550.97602
  Ewald   -1822.57439 -1720.56636 -1741.95254    44.96000    30.38481   -63.48522
  Hartree   210.28877   219.26431   214.85314    20.21445     6.26727   -28.54358
  E(xc)    -495.73529  -498.23303  -497.86109    -0.56176    -0.52845     0.79322
  Local     350.50672   252.32981   275.87128   -61.63397   -33.44705    87.02950
  n-local   -95.80011   -93.24580   -99.19779    -2.06381    -1.90205     0.93153
  augment   449.03738   448.68541   448.67189     0.21870     0.01924    -0.29255
  Kinetic   853.32315   840.47811   848.90512     2.56462    -0.66785     6.17834
  Fock        0.00000     0.00000     0.00000     0.00000     0.00000     0.00000
  Total       0.02226    -0.01750    -0.02800     0.00366     0.01492    -0.00517
  in kB       0.13729    -0.10793    -0.17270     0.02260     0.09202    -0.03191

 VOLUME and BASIS-vectors are now :
  energy-cutoff  :      267.88
  volume of cell :      259.77
      direct lattice vectors                 reciprocal lattice vectors
     6.680937241 -0.087807111  0.123986990     0.150640089  0.024410169 -0.034468087
    -1.143612814  6.271953210 -0.556297192     0.002805574  0.156364736 -0.040439145
     1.143612828  1.557313293  6.100954162    -0.002805574  0.013761572  0.160921945

  length of vectors
     6.682664535  6.399587010  6.399587228     0.156449167  0.161533669  0.161533664

 FORCES acting on ions
    electron-ion (+dipol)            ewald-force                    non-local-force                 convergence-correction
   -.325E+01 -.323E+02 -.346E+00   0.273E+01 0.325E+02 0.115E+01   0.514E+00 -.221E+00 -.806E+00   0.357E-02 -.521E-02 0.127E-01
   0.325E+01 -.110E+02 -.303E+02   -.273E+01 0.119E+02 0.303E+02   -.514E+00 -.834E+00 0.596E-01   -.357E-02 0.103E-01 -.913E-02
   0.325E+01 0.323E+02 0.346E+00   -.273E+01 -.325E+02 -.115E+01   -.514E+00 0.221E+00 0.806E+00   -.357E-02 0.521E-02 -.127E-01
   -.325E+01 0.110E+02 0.303E+02   0.273E+01 -.119E+02 -.303E+02   0.514E+00 0.834E+00 -.596E-01   0.357E-02 -.103E-01 0.913E-02
   -.159E+01 -.639E+01 0.367E+02   0.245E+01 0.560E+01 -.367E+02   -.852E+00 0.788E+00 0.677E-01   -.541E-03 0.377E-02 0.239E-02
   0.159E+01 0.325E+02 -.182E+02   -.245E+01 -.328E+02 0.175E+02   0.852E+00 0.325E+00 0.721E+00   0.541E-03 0.350E-02 0.276E-02
   0.159E+01 0.639E+01 -.367E+02   -.245E+01 -.560E+01 0.367E+02   0.852E+00 -.788E+00 -.677E-01   0.541E-03 -.377E-02 -.239E-02
   -.159E+01 -.325E+02 0.182E+02   0.245E+01 0.328E+02 -.175E+02   -.852E+00 -.325E+00 -.721E+00   -.541E-03 -.350E-02 -.276E-02
   0.130E+02 -.884E+01 0.125E+02   -.137E+02 0.947E+01 -.134E+02   0.643E+00 -.626E+00 0.884E+00   -.926E-02 -.705E-02 0.996E-02
   -.130E+02 0.884E+01 -.125E+02   0.137E+02 -.947E+01 0.134E+02   -.643E+00 0.626E+00 -.884E+00   0.926E-02 0.705E-02 -.996E-02
   0.262E+02 0.375E+01 0.765E+01   -.263E+02 -.377E+01 -.810E+01   0.829E-01 0.340E-01 0.460E+00   -.103E-01 -.154E-01 -.859E-02
   -.262E+02 0.846E+01 0.100E+01   0.263E+02 -.889E+01 -.869E+00   -.829E-01 0.445E+00 -.121E+00   0.103E-01 -.132E-01 -.117E-01
   -.262E+02 -.375E+01 -.765E+01   0.263E+02 0.377E+01 0.810E+01   -.829E-01 -.340E-01 -.460E+00   0.103E-01 0.154E-01 0.859E-02
   0.262E+02 -.846E+01 -.100E+01   -.263E+02 0.889E+01 0.869E+00   0.829E-01 -.445E+00 0.121E+00   -.103E-01 0.132E-01 0.117E-01
   0.752E-06 -.326E+02 -.231E+02   -.451E-06 0.322E+02 0.228E+02   0.818E-09 0.448E+00 0.317E+00   0.283E-09 -.235E-02 -.166E-02
   -.752E-06 0.326E+02 0.231E+02   0.451E-06 -.322E+02 -.228E+02   -.818E-09 -.448E+00 -.317E+00   -.282E-09 0.235E-02 0.166E-02
   -.128E-13 -.111E-12 -.383E-13   -.577E-12 0.215E-11 0.732E-12   -.242E-27 -.373E-26 -.630E-25   -.172E-12 0.506E-13 -.730E-13
   -.101E-12 -.268E-12 -.202E-11   -.239E-11 -.662E-11 -.217E-11   -.323E-25 -.978E-25 -.103E-24   0.307E-12 -.360E-12 0.152E-12
   0.608E+00 0.741E+01 -.105E+02   -.317E+00 -.712E+01 0.100E+02   -.301E+00 -.298E+00 0.420E+00   0.969E-02 0.247E-04 -.348E-04
   -.608E+00 -.741E+01 0.105E+02   0.317E+00 0.712E+01 -.100E+02   0.301E+00 0.298E+00 -.420E+00   -.969E-02 -.247E-04 0.348E-04
   0.194E-11 0.362E-11 0.283E-11   0.178E-13 0.249E-13 -.195E-13   -.444E-15 -.555E-16 0.333E-15   -.209E-12 -.940E-12 -.922E-12

 POSITION                                       TOTAL-FORCE (eV/Angst)
      2.60018      5.84891      2.22434         0.001274      0.002689      0.007418
      4.08076      3.95203      4.90281        -0.001274      0.007890      0.000074
      4.08076      1.89255      3.44430        -0.001274     -0.002689     -0.007418
      2.60018      3.78943      0.76583         0.001274     -0.007890     -0.000074
      5.09617      3.88581      0.11600         0.000542      0.001113     -0.001577
      1.58477      1.31157      3.75093        -0.000542     -0.001118      0.001573
      0.44115      2.29834     -0.54831        -0.000542     -0.001113      0.001577
      6.23978      0.15794      2.47401         0.000542      0.001118     -0.001573
      0.49005      5.04487      1.17639         0.005438      0.003547     -0.005009
      6.19089      2.69659      4.49225        -0.005438     -0.003547      0.005009
      2.07814      6.06989      4.75792         0.003468      0.002330      0.000369
      4.60280      6.41529      4.27020        -0.003468      0.001122      0.002075
      4.60280      1.67157      0.91072        -0.003468     -0.002330     -0.000369
      2.07814      1.32617      1.39844         0.003468     -0.001122     -0.002075
      0.00000      5.10393      3.61458        -0.000000     -0.003633     -0.002573
      0.00000      2.72534      1.93007         0.000000      0.003633      0.002573
      0.00000      0.00000      0.00000        -0.000000      0.000000      0.000000
      3.34047     -0.04390      0.06199        -0.000000     -0.000000      0.000000
      2.00968      3.60089      3.21534        -0.000267     -0.001744      0.002463
      4.67126      4.14057      2.45330         0.000267      0.001744     -0.002463
    total drift:                                0.000000      0.000000      0.000000

  FREE ENERGIE OF THE ION-ELECTRON SYSTEM (eV)
  free  energy   TOTEN  =      -174.18053102 eV

  energy  without entropy=     -174.07712075  energy(sigma->0) =     -174.12882589

 d Force = 0.7692566E-04[ 0.416E-04, 0.112E-03]  d Energy = 0.7673298E-04 0.193E-06
 d Force = 0.1211378E+00[ 0.120E+00, 0.122E+00]  d Ewald  = 0.4805334E-01 0.731E-01

 Conjugate gradient step on ions:
 trial-energy change:   -0.000077  1 .order   -0.000092   -0.000132   -0.000052
  (g-gl).g = 0.336E-04      g.g   = 0.903E-04  gl.gl    = 0.137E-03
 g(Force)  = 0.768E-04   g(Stress)= 0.135E-04 ortho     = 0.167E-04
 gamma     =   0.24586
 trial     =   1.39350
 opt step  =   2.29789  (harmonic =   2.29789) maximal distance =0.00195448
 next E    =  -174.180563   (d E  =  -0.00011)

 reached required accuracy - stopping structural energy minimisation