 vasp.5.4.4.18Apr17-6-g9f103f2a35 (build Jul 11 2019 11:52:51) complex

 executed on             LinuxIFC date 2023.11.29  16:55:47

 INCAR:
 POTCAR:    PAW_PBE V 08Apr2002
 POTCAR:    PAW_PBE Fe 06Sep2000
 POTCAR:    PAW_PBE V 08Apr2002
   VRHFIN =V: p6 d4 s1

   TITEL  = PAW_PBE V 08Apr2002
   POMASS =   50.941; ZVAL   =    5.000    mass and valenz
   ENMAX  =  192.543; ENMIN  =  144.408 eV

 POTCAR:    PAW_PBE Fe 06Sep2000
   VRHFIN =Fe:  d7 s1

   TITEL  = PAW_PBE Fe 06Sep2000
   POMASS =   55.847; ZVAL   =    8.000    mass and valenz
   ENMAX  =  267.882; ENMIN  =  200.911 eV

  PAW_PBE V 08Apr2002                   :
  PAW_PBE Fe 06Sep2000                  :

 POSCAR: EA0     7.567  7.769  4.407 90.00 90.00
  positions in direct lattice
 exchange correlation table for  LEXCH =        8
   RHO(1)=    0.500       N(1)  =     2000
   RHO(2)=  100.500       N(2)  =     4000

 ion  position               nearest neighbor table
   1  0.245  0.500  0.500-   7 2.21   8 2.21  16 2.42  17 2.42  16 2.67  17 2.67  11 2.93  11 2.93

   2  0.755  0.500  0.500-   7 2.21   8 2.21  14 2.42  15 2.42  15 2.67  14 2.67  11 2.93  11 2.93

   3  0.723  0.867  0.937-  12 2.13   4 2.14  20 2.20  15 2.21  20 2.70  18 2.76   9 2.86   8 3.12
                            13 3.16
   4  0.723  0.133  0.063-  13 2.13   3 2.14  20 2.20  14 2.21  20 2.70  18 2.76  10 2.86   7 3.12
                            12 3.16
   5  0.277  0.867  0.063-  12 2.13   6 2.14  19 2.20  17 2.21  19 2.70  18 2.76   9 2.86   8 3.12
                            13 3.16
   6  0.277  0.133  0.937-  13 2.13   5 2.14  19 2.20  16 2.21  19 2.70  18 2.76  10 2.86   7 3.12
                            12 3.16
   7  0.500  0.362  0.500-   8 2.14   2 2.21   1 2.21  11 2.45  11 2.45  18 2.82   4 3.12   6 3.12

[...]

   9  0.000  0.834  0.500-  12 2.20  12 2.20  20 2.25  19 2.25  10 2.59  17 2.82  15 2.82   5 2.86
                             3 2.86  15 3.03  17 3.03
  10  0.000  0.166  0.500-  13 2.20  13 2.20  20 2.25  19 2.25   9 2.59  16 2.82  14 2.82   6 2.86
                             4 2.86  16 3.03  14 3.03
  11  0.500  0.500  0.000-   7 2.45   8 2.45   7 2.45   8 2.45  16 2.92  17 2.92  14 2.92  15 2.92
                             1 2.93   2 2.93   1 2.93   2 2.93
  12  0.000  0.830  0.000-  15 1.91  17 1.91   3 2.13   5 2.13   9 2.20   9 2.20  13 2.64   6 3.16
                             4 3.16
  13  0.000  0.170  0.000-  14 1.91  16 1.91   4 2.13   6 2.13  10 2.20  10 2.20  12 2.64   3 3.16
                             5 3.16
  14  0.864  0.376  0.968-  13 1.91  15 1.95  16 2.08   4 2.21   2 2.42   2 2.67  17 2.82  10 2.82
                            11 2.92  10 3.03
  15  0.864  0.624  0.032-  12 1.91  14 1.95  17 2.08   3 2.21   2 2.42   2 2.67  16 2.82   9 2.82
                            11 2.92   9 3.03
  16  0.136  0.376  0.032-  13 1.91  17 1.95  14 2.08   6 2.21   1 2.42   1 2.67  15 2.82  10 2.82
                            11 2.92  10 3.03
  17  0.136  0.624  0.968-  12 1.91  16 1.95  15 2.08   5 2.21   1 2.42   1 2.67  14 2.82   9 2.82
                            11 2.92   9 3.03
  18  0.500  0.000  0.500-  19 1.94  20 1.94   5 2.76   6 2.76   3 2.76   4 2.76   7 2.82   8 2.82

  19  0.243  0.000  0.500-  18 1.94   6 2.20   5 2.20  10 2.25   9 2.25   5 2.70   6 2.70
  20  0.757  0.000  0.500-  18 1.94   4 2.20   3 2.20  10 2.25   9 2.25   4 2.70   3 2.70

  LATTYP: Found a simple orthorhombic cell.
 ALAT       =     4.4069050000
 B/A-ratio  =     1.7171039539
 C/A-ratio  =     1.7628805250

  Lattice vectors:

 A1 = (   0.0000000000,   0.0000000000,   4.4069050000)
 A2 = (  -7.5671140000,   0.0000000000,   0.0000000000)
 A3 = (   0.0000000000,  -7.7688470000,   0.0000000000)

Analysis of symmetry for initial positions (statically):
 Subroutine PRICEL returns:
 Original cell was already a primitive cell.

 Routine SETGRP: Setting up the symmetry group for a
 simple orthorhombic supercell.

 Subroutine GETGRP returns: Found  4 space group operations
 (whereof  4 operations were pure point group operations)
 out of a pool of  8 trial point group operations.

The static configuration has the point symmetry D_2 .

Analysis of symmetry for dynamics (positions and initial velocities):
 Subroutine PRICEL returns:
 Original cell was already a primitive cell.

 Routine SETGRP: Setting up the symmetry group for a
 simple orthorhombic supercell.

 Subroutine GETGRP returns: Found  4 space group operations
 (whereof  4 operations were pure point group operations)
 out of a pool of  8 trial point group operations.

The dynamic configuration has the point symmetry D_2 .

 Subroutine INISYM returns: Found  4 space group operations
 (whereof  4 operations are pure point group operations),
 and found     1 'primitive' translations

 KPOINTS: EA

Automatic generation of k-mesh.
Space group operators:
 irot       det(A)        alpha          n_x          n_y          n_z        tau_x        tau_y        tau_z
    1     1.000000     0.000001     1.000000     0.000000     0.000000     0.000000     0.000000     0.000000
    2     1.000000   180.000000     0.000000     1.000000     0.000000     0.000000     0.000000     0.000000
    3     1.000000   180.000000     1.000000     0.000000     0.000000     0.000000     0.000000     0.000000
    4     1.000000   179.999999     0.000000     0.000000     1.000000     0.000000     0.000000     0.000000

 Subroutine IBZKPT returns following result:

 Found      8 irreducible k-points:

 Following reciprocal coordinates:
            Coordinates               Weight
  0.000000  0.000000  0.000000      1.000000
  0.500000  0.000000  0.000000      1.000000
  0.000000  0.500000  0.000000      1.000000
  0.500000  0.500000  0.000000      1.000000
  0.000000  0.000000  0.333333      2.000000
  0.500000  0.000000  0.333333      2.000000
  0.000000  0.500000  0.333333      2.000000
  0.500000  0.500000  0.333333      2.000000

 Following cartesian coordinates:
            Coordinates               Weight
  0.000000  0.000000  0.000000      1.000000
  0.066075  0.000000  0.000000      1.000000
  0.000000  0.064360  0.000000      1.000000
  0.066075  0.064360  0.000000      1.000000
  0.000000  0.000000  0.075639      2.000000
  0.066075  0.000000  0.075639      2.000000
  0.000000  0.064360  0.075639      2.000000
  0.066075  0.064360  0.075639      2.000000

 SYSTEM =  unknown system
 POSCAR =  EA0     7.567  7.769  4.407 90.00 90.00

 Startparameter for this run:
   NWRITE =      2    write-flag & timer
   PREC   = normal    normal or accurate (medium, high low for compatibility)
   ISTART =      0    job   : 0-new  1-cont  2-samecut
   ICHARG =      2    charge: 1-file 2-atom 10-const
   ISPIN  =      1    spin polarized calculation?
   LNONCOLLINEAR =      F non collinear calculations
   LSORBIT =      F    spin-orbit coupling
   INIWAV =      1    electr: 0-lowe 1-rand  2-diag
   LASPH  =      F    aspherical Exc in radial PAW
   METAGGA=      F    non-selfconsistent MetaGGA calc.

 Electronic Relaxation 1
   ENCUT  =  267.9 eV  19.69 Ry    4.44 a.u.  10.10 10.37  5.88*2*pi/ulx,y,z
   ENINI  =  267.9     initial cutoff
   ENAUG  =  511.4 eV  augmentation charge cutoff
   NELM   =     60;   NELMIN=  2; NELMDL= -5     # of ELM steps
   EDIFF  = 0.1E-04   stopping-criterion for ELM
   LREAL  =      F    real-space projection
   NLSPLINE    = F    spline interpolate recip. space projectors
   LCOMPAT=      F    compatible to vasp.4.4
   GGA_COMPAT  = T    GGA compatible to vasp.4.4-vasp.4.6
   LMAXPAW     = -100 max onsite density
   LMAXMIX     =    2 max onsite mixed and CHGCAR
   VOSKOWN=      0    Vosko Wilk Nusair interpolation
   ROPT   =    0.00000   0.00000
 Ionic relaxation
   EDIFFG = -.1E-01   stopping-criterion for IOM
   NSW    =    500    number of steps for IOM
   NBLOCK =      1;   KBLOCK =    500    inner block; outer block
   IBRION =      2    ionic relax: 0-MD 1-quasi-New 2-CG
   NFREE  =      1    steps in history (QN), initial steepest desc. (CG)
   ISIF   =      3    stress and relaxation
   IWAVPR =     11    prediction:  0-non 1-charg 2-wave 3-comb
   ISYM   =      2    0-nonsym 1-usesym 2-fastsym
   LCORR  =      T    Harris-Foulkes like correction to forces

   POTIM  = 0.5000    time-step for ionic-motion
   TEIN   =    0.0    initial temperature
   TEBEG  =    0.0;   TEEND  =   0.0 temperature during run
   SMASS  =  -3.00    Nose mass-parameter (am)
   estimated Nose-frequenzy (Omega)   =  0.10E-29 period in steps =****** mass=  -0.131E-26a.u.
   SCALEE = 1.0000    scale energy and forces
   NPACO  =    256;   APACO  = 16.0  distance and # of slots for P.C.
   PSTRESS=    0.0 pullay stress

  Mass of Ions in am
   POMASS =  50.94 55.85
  Ionic Valenz
   ZVAL   =   5.00  8.00
  Atomic Wigner-Seitz radii
  virtual crystal weights
   VCA    =   1.00  1.00
   NELECT =     109.0000    total number of electrons
   NUPDOWN=      -1.0000    fix difference up-down

 DOS related values:
   EMIN   =  10.00;   EMAX   =-10.00  energy-range for DOS
   EFERMI =   0.00
   ISMEAR =     0;   SIGMA  =   0.10  broadening in eV -4-tet -1-fermi 0-gaus

 Electronic relaxation 2 (details)
   IALGO  =     38    algorithm
   LDIAG  =      T    sub-space diagonalisation (order eigenvalues)
   LSUBROT=      F    optimize rotation matrix (better conditioning)
   TURBO    =      0    0=normal 1=particle mesh
   IRESTART =      0    0=no restart 2=restart with 2 vectors
   NREBOOT  =      0    no. of reboots
   NMIN     =      0    reboot dimension
   EREF     =   0.00    reference energy to select bands
   IMIX   =      4    mixing-type and parameters
     AMIX     =   0.40;   BMIX     =  1.00
     AMIX_MAG =   1.60;   BMIX_MAG =  1.00
     AMIN     =   0.10
     WC   =   100.;   INIMIX=   1;  MIXPRE=   1;  MAXMIX= -45

 Intra band minimization:
   WEIMIN = 0.0010     energy-eigenvalue tresh-hold
   EBREAK =  0.37E-07  absolut break condition
   DEPER  =   0.30     relativ break condition

   TIME   =   0.40     timestep for ELM

  volume/ion in A,a.u.               =      12.95        87.42
  Fermi-wavevector in a.u.,A,eV,Ry     =   1.226714  2.318154 20.474433  1.504828
  Thomas-Fermi vector in A             =   2.361705

 Write flags
   LWAVE        =      F    write WAVECAR
   LDOWNSAMPLE  =      F    k-point downsampling of WAVECAR
   LCHARG       =      F    write CHGCAR
   LVTOT        =      F    write LOCPOT, total local potential
   LVHAR        =      F    write LOCPOT, Hartree potential only
   LELF         =      F    write electronic localiz. function (ELF)
   LORBIT       =      0    0 simple, 1 ext, 2 COOP (PROOUT), +10 PAW based schemes

 Dipole corrections
   LMONO  =      F    monopole corrections only (constant potential shift)
   LDIPOL =      F    correct potential (dipole corrections)
   IDIPOL =      0    1-x, 2-y, 3-z, 4-all directions
   EPSILON=  1.0000000 bulk dielectric constant

 Exchange correlation treatment:
   GGA     =    --    GGA type
   VOSKOWN=      0    Vosko Wilk Nusair interpolation
   LHFCALC =     F    Hartree Fock is set to
   LHFONE  =     F    Hartree Fock one center treatment
   AEXX    =    0.0000 exact exchange contribution

 Linear response parameters
[...]

[...]

 d Force =-0.6618596E-01[-0.681E-01,-0.643E-01]  d Energy = 0.2200928E-02-0.684E-01
 d Force =-0.1460748E+01[-0.148E+01,-0.144E+01]  d Ewald  = 0.5572154E+01-0.703E+01

[...]

 d Force = 0.1519911E+01[ 0.119E+01, 0.185E+01]  d Energy = 0.2547087E+01-0.103E+01
 d Force = 0.4006772E+02[ 0.346E+02, 0.455E+02]  d Ewald  = 0.1471210E+03-0.107E+03

 Conjugate gradient step on ions:
 trial-energy change:   -2.547087  1 .order   -2.483563   -3.371191   -1.595934
  (g-gl).g = 0.381E+01      g.g   = 0.377E+01  gl.gl    = 0.441E+02
 g(Force)  = 0.165E+01   g(Stress)= 0.212E+01 ortho     =-0.386E-01
 gamma     =   0.08642
 trial     =   0.89416
 opt step  =   1.48655  (harmonic =   1.69800) maximal distance =0.17561065
 next E    =  -164.628078   (d E  =  -3.09422)

[...]

 Conjugate gradient step on ions:
 trial-energy change:   -1.840037  1 .order   -1.846362   -2.027434   -1.665290
  (g-gl).g = 0.341E+01      g.g   = 0.319E+01  gl.gl    = 0.377E+01
 g(Force)  = 0.240E+01   g(Stress)= 0.795E+00 ortho     = 0.917E-01
 gamma     =   0.90342
 trial     =   0.61898
 opt step  =   2.47591  (harmonic =   3.46530) maximal distance =0.43692695
 next E    =  -170.312742   (d E  =  -5.67522)

[...]

 d Force = 0.2560603E+00[-0.388E+01, 0.439E+01]  d Energy = 0.9970520E+00-0.741E+00
 d Force = 0.7491533E+02[-0.282E+01, 0.153E+03]  d Ewald  = 0.7775350E+02-0.284E+01

[...]

 d Force = 0.8108082E+00[-0.236E+00, 0.186E+01]  d Energy = 0.7484058E+00 0.624E-01
 d Force =-0.1348147E+02[-0.328E+02, 0.581E+01]  d Ewald  =-0.1582828E+02 0.235E+01

[...]

 d Force = 0.1026442E-01[-0.222E-01, 0.427E-01]  d Energy = 0.3623708E-01-0.260E-01
 d Force = 0.5499688E+01[ 0.497E+01, 0.603E+01]  d Ewald  = 0.5479384E+01 0.203E-01

[...]

 d Force = 0.4703897E+00[ 0.335E+00, 0.606E+00]  d Energy = 0.5148615E+00-0.445E-01
 d Force = 0.9050121E+01[ 0.524E+01, 0.129E+02]  d Ewald  =-0.5731951E+01 0.148E+02

[...]

 d Force = 0.1830790E+00[ 0.210E-01, 0.345E+00]  d Energy = 0.1822482E+00 0.831E-03
 d Force = 0.1307329E+01[-0.278E+01, 0.540E+01]  d Ewald  =-0.1357904E+02 0.149E+02

[...]

 d Force = 0.1696738E+00[ 0.735E-01, 0.266E+00]  d Energy = 0.1768385E+00-0.716E-02
 d Force =-0.9748849E+01[-0.116E+02,-0.792E+01]  d Ewald  = 0.4256911E+02-0.523E+02

[...]

 d Force =-0.1507439E-01[-0.181E-01,-0.120E-01]  d Energy = 0.7216469E-02-0.223E-01
 d Force = 0.1844427E+01[ 0.179E+01, 0.190E+01]  d Ewald  =-0.6694344E+01 0.854E+01

[...]

 d Force = 0.9557497E-01[ 0.166E-02, 0.189E+00]  d Energy = 0.1172392E+00-0.217E-01
 d Force =-0.9863915E+01[-0.114E+02,-0.834E+01]  d Ewald  =-0.2952825E+02 0.197E+02

[...]

 d Force = 0.3464966E-01[ 0.280E-01, 0.413E-01]  d Energy = 0.3608717E-01-0.144E-02
 d Force =-0.3306368E+01[-0.352E+01,-0.309E+01]  d Ewald  =-0.3439092E+01 0.133E+00

[...]

 d Force = 0.2725167E-01[-0.224E-02, 0.567E-01]  d Energy = 0.2780604E-01-0.554E-03
 d Force =-0.8032224E+01[-0.891E+01,-0.715E+01]  d Ewald  =-0.8351911E+01 0.320E+00

[...]

 d Force = 0.4165382E-02[-0.994E-03, 0.933E-02]  d Energy = 0.1119201E-02 0.305E-02
 d Force = 0.9516235E+00[ 0.882E+00, 0.102E+01]  d Ewald  =-0.1444097E+02 0.154E+02

[...]

 d Force =-0.6652037E-03[-0.180E-02, 0.466E-03]  d Energy = 0.4406603E-02-0.507E-02
 d Force =-0.4299237E+00[-0.445E+00,-0.415E+00]  d Ewald  = 0.6808064E+01-0.724E+01

[...]

 Conjugate gradient step on ions:
 trial-energy change:   -0.002771  1 .order   -0.002633   -0.004997   -0.000270
  (g-gl).g = 0.343E-02      g.g   = 0.402E-02  gl.gl    = 0.156E-01
 g(Force)  = 0.201E-02   g(Stress)= 0.201E-02 ortho     = 0.444E-03
 gamma     =   0.21936
 trial     =   1.21306
 opt step  =   1.27150  (harmonic =   1.28222) maximal distance =0.00828110
 next E    =  -169.359204   (d E  =  -0.00278)

[...]

 d Force = 0.1007424E-04[ 0.656E-05, 0.136E-04]  d Energy = 0.1326510E-04-0.319E-05
 d Force = 0.4765118E-01[ 0.476E-01, 0.477E-01]  d Ewald  = 0.2276229E+00-0.180E+00

[...]

 d Force =-0.6378569E-07[-0.133E-04, 0.131E-04]  d Energy =-0.5824336E-05 0.576E-05
 d Force = 0.9501705E-01[ 0.948E-01, 0.952E-01]  d Ewald  = 0.4549791E+00-0.360E+00

[...]

 d Force = 0.1852275E-05[ 0.171E-05, 0.200E-05]  d Energy = 0.2023536E-05-0.171E-06
 d Force = 0.1678348E-02[ 0.168E-02, 0.168E-02]  d Ewald  =-0.1359813E-01 0.153E-01

[...]

 d Force =-0.2062592E-04[-0.219E-04,-0.193E-04]  d Energy = 0.3846372E-05-0.245E-04
 d Force = 0.3185250E-01[ 0.318E-01, 0.319E-01]  d Ewald  =-0.2233443E+00 0.255E+00

[...]

 d Force = 0.1231788E-03[-0.702E-04, 0.317E-03]  d Energy = 0.1142560E-03 0.892E-05
 d Force =-0.4279047E+00[-0.431E+00,-0.425E+00]  d Ewald  =-0.1360749E+01 0.933E+00

[...]

 d Force = 0.6370582E-05[-0.106E-04, 0.233E-04]  d Energy = 0.1867497E-04-0.123E-04
 d Force = 0.1427171E+00[ 0.142E+00, 0.143E+00]  d Ewald  = 0.4525457E+00-0.310E+00

[...]

 Broyden mixing:
  rms(total) = 0.74976E-02    rms(broyden)= 0.61231E-02
  rms(prec ) = 0.10636E-01
  weight for this iteration     100.00
  WARNING: grid for Broyden might be to small

[...]

 eigenvalue-minimisations  :  1840
 total energy-change (2. order) :-0.8071864E-04  (-0.1893920E-03)
 number of electron     109.0000675 magnetization
 augmentation part       43.7828239 magnetization

[...]

 Broyden mixing:
  rms(total) = 0.41864E-02    rms(broyden)= 0.41802E-02
  rms(prec ) = 0.74362E-02
  weight for this iteration     100.00

 eigenvalues of (default mixing * dielectric matrix)
  average eigenvalue GAMMA=   0.4814
  1.5225  0.4995  0.1802  0.0979  0.1070

[...]

--------------------------------------- Iteration     34(   7)  ---------------------------------------

 eigenvalue-minimisations  :  1712
 total energy-change (2. order) : 0.3345668E-05  (-0.9337026E-05)
 number of electron     109.0000675 magnetization
 augmentation part       43.7852500 magnetization

 Free energy of the ion-electron system (eV)
  alpha Z        PSCENC =       539.13640560
  Ewald energy   TEWEN  =     -5029.99672303
  -Hartree energ DENC   =      -861.43242223
  -exchange      EXHF   =         0.00000000
  -V(xc)+E(xc)   XCENC  =      -769.92116436
  PAW double counting   =      7821.15124106    -7018.42971044
  entropy T*S    EENTRO =        -0.11512537
  eigenvalues    EBANDS =       462.76300316
  atomic energy  EATOM  =      4687.48422623
  Solvation  Ediel_sol  =         0.00000000
  free energy    TOTEN  =      -169.36026938 eV

  energy without entropy =     -169.24514402  energy(sigma->0) =     -169.30270670

 average (electrostatic) potential at core
  the test charge radii are     1.2064  1.0103
  (the norm of the test charge is              1.0000)
       1 -39.2951       2 -39.2951       3 -39.3342       4 -39.3342       5 -39.3342
       6 -39.3342       7 -39.8153       8 -39.8153       9 -39.5373      10 -39.5373
      11 -39.3828      12 -39.2120      13 -39.2120      14 -39.2272      15 -39.2272
      16 -39.2272      17 -39.2272      18 -43.1471      19 -43.1005      20 -43.1005

 E-fermi :   6.2168     XC(G=0): -12.4367     alpha+bet :-14.8812

[...]

 k-point     8 :       0.5000    0.5000    0.3333
  band No.  band energies     occupation
      1       1.2233      2.00000
      2       1.3754      2.00000
      3       1.8062      2.00000
      4       1.8852      2.00000
      5       2.5989      2.00000
      6       2.7201      2.00000
      7       2.8113      2.00000
      8       2.8826      2.00000
      9       3.0112      2.00000
     10       3.1058      2.00000
     11       3.1616      2.00000
     12       3.1979      2.00000
     13       3.3540      2.00000
     14       3.3712      2.00000
     15       3.3845      2.00000
     16       3.4420      2.00000
     17       3.4967      2.00000
     18       3.6401      2.00000
     19       3.7004      2.00000
     20       3.7577      2.00000
     21       3.7646      2.00000
     22       3.8496      2.00000
     23       3.9196      2.00000
     24       4.0076      2.00000
     25       4.2463      2.00000
     26       4.3192      2.00000
     27       4.3588      2.00000
     28       4.4815      2.00000
     29       4.5549      2.00000
     30       4.5801      2.00000
     31       4.6810      2.00000
     32       4.7133      2.00000
     33       4.7709      2.00000
     34       4.8106      2.00000
     35       4.8162      2.00000
     36       4.9493      2.00000
     37       4.9920      2.00000
     38       5.1045      2.00000
     39       5.2391      2.00000
     40       5.2865      2.00000
     41       5.3216      2.00000
     42       5.3326      2.00000
     43       5.3865      2.00000
     44       5.4249      2.00000
     45       5.5097      2.00000
     46       5.5526      2.00000
     47       5.5739      2.00000
     48       5.6893      2.00000
     49       5.7089      2.00000
     50       5.7684      2.00000
     51       5.8684      2.00000
     52       5.9505      1.99983
     53       5.9698      1.99952
     54       6.0793      1.94813
     55       6.2228      0.93197
     56       6.2646      0.49842
     57       6.2672      0.47554
     58       6.3604      0.04221
     59       6.4082      0.00677
     60       6.4955      0.00008
     61       6.5144      0.00003
     62       6.7876      0.00000
     63       6.8044      0.00000
     64       6.9207      0.00000
     65       7.0021      0.00000
     66       7.0176      0.00000
     67       7.0350      0.00000
     68       7.2588      0.00000

 soft charge-density along one line, spin component           1
         0         1         2         3         4         5         6         7         8         9
 total charge-density along one line

------------------------ aborting loop because EDIFF is reached ----------------------------------------

  FORCE on cell =-STRESS in cart. coord.  units (eV):
  Direction    XX          YY          ZZ          XY          YZ          ZX
  Alpha Z   539.13641   539.13641   539.13641
  Ewald   -1396.03067 -2077.05231 -1556.92746    -0.00000     0.00000    -0.00000
  Hartree   526.60617   -90.72513   425.32430    -0.00000    -0.00000    -0.00000
  E(xc)    -496.65924  -500.93711  -497.59899    -0.00000     0.00000     0.00000
  Local    -356.30560   933.97538  -111.10656    -0.00000    -0.00000     0.00000
  n-local  -108.54925  -111.39918  -111.23150     0.00000     0.00000    -0.00000
  augment   445.79371   453.16848   452.89586    -0.00000     0.00000    -0.00000
  Kinetic   846.04022   853.86685   859.48557     0.00000    -0.00000     0.00000
  Fock        0.00000     0.00000     0.00000     0.00000     0.00000     0.00000
  Total       0.03175     0.03338    -0.02236     0.00000     0.00000     0.00000
  in kB       0.19160     0.20145    -0.13494     0.00000     0.00000     0.00000

 VOLUME and BASIS-vectors are now :
  energy-cutoff  :      267.88
  volume of cell :      265.47
      direct lattice vectors                 reciprocal lattice vectors
     7.004298370  0.000000000  0.000000000     0.142769475  0.000000000  0.000000000
     0.000000000  9.010414408  0.000000000     0.000000000  0.110982687  0.000000000
     0.000000000  0.000000000  4.206370783     0.000000000  0.000000000  0.237734630

  length of vectors
     7.004298370  9.010414408  4.206370783     0.142769475  0.110982687  0.237734630

 FORCES acting on ions
    electron-ion (+dipol)            ewald-force                    non-local-force                 convergence-correction
   -.355E+01 -.699E-13 -.338E-05   0.490E+01 0.138E-13 -.149E-14   -.140E+01 0.153E-24 0.296E-24   0.441E-01 -.200E-12 0.444E-13
   0.355E+01 0.711E-12 0.338E-05   -.490E+01 0.103E-13 0.334E-14   0.140E+01 -.106E-23 -.363E-24   -.441E-01 -.424E-12 0.443E-12
   0.133E+02 0.957E+02 -.390E-01   -.132E+02 -.946E+02 0.373E-01   -.717E-01 -.113E+01 0.936E-03   -.280E-01 0.133E-01 0.370E-03
   0.133E+02 -.957E+02 0.390E-01   -.132E+02 0.946E+02 -.373E-01   -.717E-01 0.113E+01 -.936E-03   -.280E-01 -.133E-01 -.370E-03
   -.133E+02 0.957E+02 0.390E-01   0.132E+02 -.946E+02 -.373E-01   0.717E-01 -.113E+01 -.936E-03   0.280E-01 0.133E-01 -.370E-03
   -.133E+02 -.957E+02 -.390E-01   0.132E+02 0.946E+02 0.373E-01   0.717E-01 0.113E+01 0.936E-03   0.280E-01 -.133E-01 0.370E-03
   0.421E-13 -.718E+02 -.515E-04   0.000E+00 0.721E+02 0.175E-14   0.983E-24 -.236E+00 -.179E-23   0.201E-12 -.490E-02 0.198E-13
   0.157E-13 0.718E+02 0.515E-04   0.711E-14 -.721E+02 0.741E-15   0.267E-23 0.236E+00 -.256E-23   -.871E-13 0.490E-02 0.121E-12
   0.158E-13 0.141E+03 -.902E-06   0.711E-14 -.143E+03 0.837E-15   -.209E-24 0.188E+01 0.269E-23   0.532E-13 0.197E-01 0.247E-14
   0.346E-14 -.141E+03 0.902E-06   0.213E-13 0.143E+03 -.153E-14   0.211E-23 -.188E+01 0.272E-23   -.230E-12 -.197E-01 -.140E-13
   0.141E-13 -.879E-13 -.163E-13   -.107E-13 -.162E-13 0.139E-14   0.741E-24 -.112E-25 -.749E-25   0.886E-13 -.300E-12 -.121E-12
   -.404E-13 0.794E+02 -.676E-05   0.213E-13 -.794E+02 -.271E-14   -.421E-24 -.461E-01 -.118E-23   -.266E-13 0.303E-01 0.894E-13
   -.190E-13 -.794E+02 0.676E-05   0.142E-13 0.794E+02 -.330E-14   -.108E-23 0.461E-01 0.822E-24   -.171E-12 -.303E-01 0.767E-13
   0.339E+01 -.435E+02 0.674E-01   -.313E+01 0.425E+02 -.744E-01   -.216E+00 0.101E+01 0.400E-02   -.407E-01 -.112E-02 -.308E-02
   0.339E+01 0.435E+02 -.674E-01   -.313E+01 -.425E+02 0.744E-01   -.216E+00 -.101E+01 -.400E-02   -.407E-01 0.112E-02 0.308E-02
   -.339E+01 -.435E+02 -.674E-01   0.313E+01 0.425E+02 0.744E-01   0.216E+00 0.101E+01 -.400E-02   0.407E-01 -.112E-02 0.308E-02
   -.339E+01 0.435E+02 0.674E-01   0.313E+01 -.425E+02 -.744E-01   0.216E+00 -.101E+01 0.400E-02   0.407E-01 0.112E-02 -.308E-02
   0.326E-12 -.191E-13 -.113E-12   0.284E-13 0.249E-13 -.270E-15   -.356E-24 -.532E-26 -.883E-23   0.177E-12 0.641E-12 0.307E-13
   -.167E+02 -.105E-13 0.102E-05   0.161E+02 0.284E-13 0.556E-14   0.558E+00 -.103E-23 -.151E-24   0.624E-01 0.422E-12 0.384E-12
   0.167E+02 0.513E-14 -.102E-05   -.161E+02 0.427E-13 0.673E-15   -.558E+00 -.840E-24 0.159E-24   -.624E-01 0.762E-12 -.207E-11
   0.158E-06 -.189E-07 0.332E-08   -.391E-13 -.106E-13 0.106E-13   -.111E-15 -.187E-23 -.882E-23   -.105E-12 0.106E-11 -.141E-11

 POSITION                                       TOTAL-FORCE (eV/Angst)
      1.36293      4.50521      2.10319        -0.009221      0.000000      0.000000
      5.64137      4.50521      2.10319         0.009221      0.000000      0.000000
      4.62936      7.74838      4.20623        -0.002181     -0.006952     -0.000374
      4.62936      1.26204      0.00014        -0.002181      0.006952      0.000374
      2.37494      7.74838      0.00014         0.002181     -0.006952      0.000374
      2.37494      1.26204      4.20623         0.002181      0.006952     -0.000374
      3.50215      2.79306      2.10319        -0.000000     -0.004276      0.000000
      3.50215      6.21735      2.10319        -0.000000      0.004276      0.000000
      0.00000      6.97678      2.10319        -0.000000      0.002490      0.000000
      0.00000      2.03364      2.10319        -0.000000     -0.002490      0.000000
      3.50215      4.50521     -0.00000        -0.000000      0.000000      0.000000
      0.00000      7.85736     -0.00000        -0.000000     -0.009258      0.000000
      0.00000      1.15305     -0.00000        -0.000000      0.009258      0.000000
      5.64899      3.31594      0.00183        -0.003648     -0.003475     -0.006037
      5.64899      5.69447     -0.00183        -0.003648      0.003475      0.006037
      1.35531      3.31594     -0.00183         0.003648     -0.003475      0.006037
      1.35531      5.69447      0.00183         0.003648      0.003475     -0.006037
      3.50215     -0.00000      2.10319        -0.000000      0.000000      0.000000
      1.28564     -0.00000      2.10319         0.002878      0.000000      0.000000
      5.71866     -0.00000      2.10319        -0.002878      0.000000      0.000000
    total drift:                                0.000000     -0.000000      0.000000

  FREE ENERGIE OF THE ION-ELECTRON SYSTEM (eV)
  free  energy   TOTEN  =      -169.36026938 eV

  energy  without entropy=     -169.24514402  energy(sigma->0) =     -169.30270670

 d Force = 0.5073616E-04[ 0.101E-04, 0.914E-04]  d Energy = 0.5776331E-04-0.703E-05
 d Force =-0.2841362E-01[-0.290E-01,-0.278E-01]  d Ewald  = 0.5693183E+00-0.598E+00

 Conjugate gradient step on ions:
 trial-energy change:   -0.000058  1 .order   -0.000073   -0.000133   -0.000013
  (g-gl).g = 0.118E-03      g.g   = 0.123E-03  gl.gl    = 0.387E-03
 g(Force)  = 0.733E-04   g(Stress)= 0.495E-04 ortho     =-0.139E-04
 gamma     =   0.30601
 trial     =   1.12276
 opt step  =   1.24138  (harmonic =   1.24138) maximal distance =0.00122425
 next E    =  -169.360285   (d E  =  -0.00007)

 reached required accuracy - stopping structural energy minimisation