 vasp.5.4.4.18Apr17-6-g9f103f2a35 (build Jul 11 2019 11:52:51) complex

 executed on             LinuxIFC date 2023.11.29  16:43:01

 INCAR:
 POTCAR:    PAW_PBE V 08Apr2002
 POTCAR:    PAW_PBE Fe 06Sep2000
 POTCAR:    PAW_PBE V 08Apr2002
   VRHFIN =V: p6 d4 s1

   TITEL  = PAW_PBE V 08Apr2002
   POMASS =   50.941; ZVAL   =    5.000    mass and valenz
   ENMAX  =  192.543; ENMIN  =  144.408 eV

 POTCAR:    PAW_PBE Fe 06Sep2000
   VRHFIN =Fe:  d7 s1

   TITEL  = PAW_PBE Fe 06Sep2000
   POMASS =   55.847; ZVAL   =    8.000    mass and valenz
   ENMAX  =  267.882; ENMIN  =  200.911 eV

  PAW_PBE V 08Apr2002                   :
  PAW_PBE Fe 06Sep2000                  :

 POSCAR: EA0     6.365  9.702  4.265 90.02 90.00
  positions in direct lattice
 exchange correlation table for  LEXCH =        8
   RHO(1)=    0.500       N(1)  =     2000
   RHO(2)=  100.500       N(2)  =     4000

 ion  position               nearest neighbor table
   1  0.555  0.502  0.867-  11 2.48   3 2.53  15 2.53   9 2.55  14 2.58  14 2.58   8 2.61   8 2.61
                            18 2.96  20 2.96  20 2.96  10 2.98   6 2.98   6 2.99
   2  0.563  0.003  0.867-  18 2.49  19 2.50  10 2.56  13 2.59  13 2.59   7 2.60   7 2.60  12 2.65
                             4 2.93   4 2.93  15 2.95  11 2.96   5 2.99   5 2.99
   3  0.950  0.603  0.867-  18 2.47   1 2.53   9 2.53  20 2.59  20 2.59  16 2.60  16 2.60  11 2.64
                             8 2.92   8 2.92  15 2.94  12 2.95   6 2.96   6 2.96
   4  0.855  0.952  0.367-  16 2.49  13 2.49   7 2.56   5 2.56  19 2.60  18 2.60  19 2.60  18 2.60
                            12 2.93   2 2.93  12 2.93   2 2.93   8 2.94  17 2.94
   5  0.256  0.051  0.367-   7 2.48  17 2.52   4 2.56  13 2.56  10 2.59  10 2.59  12 2.60  12 2.60
                            16 2.95  19 2.98  19 2.98   2 2.99   2 2.99  14 2.99
   6  0.249  0.551  0.367-  16 2.50  20 2.51  14 2.54   9 2.58   9 2.58  11 2.62  11 2.62   8 2.62
                            17 2.96   3 2.96   3 2.96   1 2.98   1 2.99   7 2.99
   7  0.455  0.854  0.367-   5 2.48   8 2.52   4 2.56  16 2.56  11 2.59  11 2.59   2 2.60   2 2.60
                            13 2.95  18 2.98  18 2.98  12 2.99  12 2.99   6 2.99
   8  0.660  0.654  0.367-  20 2.50  16 2.52   7 2.52  18 2.58  18 2.58   1 2.61   1 2.61   6 2.62
                             3 2.92   3 2.92  11 2.94  11 2.94   4 2.94  14 2.96
   9  0.156  0.403  0.867-  10 2.48  15 2.53   3 2.53   1 2.55   6 2.58   6 2.58  17 2.61  17 2.61
                            19 2.96  20 2.96  20 2.96  11 2.98  14 2.98  14 2.99
  10  0.347  0.202  0.867-   9 2.48  19 2.52   2 2.56   5 2.59   5 2.59  14 2.62  14 2.62  15 2.64
                            17 2.94  17 2.94  12 2.96   1 2.98  13 3.00  13 3.00
  11  0.364  0.703  0.867-   1 2.48  18 2.52  12 2.56   7 2.59   7 2.59   6 2.62   6 2.62   3 2.64
                             8 2.94   8 2.94   2 2.96   9 2.98  16 3.00  16 3.00
  12  0.148  0.902  0.867-  19 2.49  18 2.50  11 2.56  16 2.58  16 2.59   5 2.60   5 2.60   2 2.65
                             4 2.93   4 2.93   3 2.95  10 2.96   7 2.99   7 2.99
  13  0.657  0.152  0.367-   4 2.49  14 2.50  17 2.52   5 2.56   2 2.59   2 2.59  15 2.60  15 2.60
                            19 2.94  19 2.94   7 2.95  20 2.96  10 3.00  10 3.00
  14  0.462  0.354  0.367-  13 2.50  20 2.52   6 2.54   1 2.58   1 2.58  10 2.62  10 2.62  17 2.62
                            15 2.96   8 2.96  15 2.96   9 2.98   9 2.99   5 2.99
  15  0.761  0.302  0.867-  19 2.47   9 2.53   1 2.53  20 2.59  20 2.59  13 2.60  13 2.60  10 2.64
                            17 2.92  17 2.92   3 2.94   2 2.95  14 2.96  14 2.96
  16  0.054  0.753  0.367-   4 2.49   6 2.50   8 2.52   7 2.56  12 2.58  12 2.59   3 2.60   3 2.60
                            18 2.94  18 2.94   5 2.95  20 2.96  11 3.00  11 3.00
  17  0.051  0.251  0.367-  20 2.50  13 2.52   5 2.52  19 2.58  19 2.59   9 2.61   9 2.61  14 2.62
                            15 2.92  15 2.92  10 2.94  10 2.94   4 2.94   6 2.96
  18  0.758  0.802  0.867-   3 2.47   2 2.49  12 2.50  11 2.52   8 2.58   8 2.58   4 2.60   4 2.60
                            16 2.94  16 2.94   1 2.96  19 2.96   7 2.98   7 2.98
  19  0.953  0.103  0.867-  15 2.47  12 2.49   2 2.50  10 2.52  17 2.58  17 2.59   4 2.60   4 2.60
                            13 2.94  13 2.94   9 2.96  18 2.96   5 2.98   5 2.98
  20  0.856  0.452  0.367-  17 2.50   8 2.50   6 2.51  14 2.52  15 2.59   3 2.59   3 2.59  15 2.59
                             9 2.96   1 2.96  16 2.96   1 2.96   9 2.96  13 2.96

  LATTYP: Found a triclinic cell.
 ALAT       =    16.8645262571
 B/A-ratio  =     0.3774375813
 C/A-ratio  =     0.2528772696
 COS(alpha) =     0.0000762078
 COS(beta)  =     0.5055777904
 COS(gamma) =     0.6513012481

  Lattice vectors:

 A1 = ( -10.9838870000,  -9.5403010000,  -8.5293100000)
 A2 = (  -6.3653060000,   0.0000000000,   0.0000000000)
 A3 = (  -0.0003250000,   0.0017060000,  -4.2646550000)

Analysis of symmetry for initial positions (statically):
 Subroutine PRICEL returns:
 Original cell was already a primitive cell.

 Routine SETGRP: Setting up the symmetry group for a
 triclinic supercell.

 Subroutine GETGRP returns: Found  1 space group operations
 (whereof  1 operations were pure point group operations)
 out of a pool of  2 trial point group operations.

The static configuration has the point symmetry C_1 .

Analysis of symmetry for dynamics (positions and initial velocities):
 Subroutine PRICEL returns:
 Original cell was already a primitive cell.

 Routine SETGRP: Setting up the symmetry group for a
 triclinic supercell.

 Subroutine GETGRP returns: Found  1 space group operations
 (whereof  1 operations were pure point group operations)
 out of a pool of  2 trial point group operations.

The dynamic configuration has the point symmetry C_1 .

 Subroutine INISYM returns: Found  1 space group operations
 (whereof  1 operations are pure point group operations),
 and found     1 'primitive' translations

 KPOINTS: EA

Automatic generation of k-mesh.
Space group operators:
 irot       det(A)        alpha          n_x          n_y          n_z        tau_x        tau_y        tau_z
    1     1.000000     0.000000     1.000000     0.000000     0.000000     0.000000     0.000000     0.000000

 Subroutine IBZKPT returns following result:

 Found      8 irreducible k-points:

 Following reciprocal coordinates:
            Coordinates               Weight
  0.000000  0.000000  0.000000      1.000000
  0.500000  0.000000  0.000000      1.000000
  0.000000  0.500000  0.000000      1.000000
  0.500000  0.500000  0.000000      1.000000
  0.000000  0.000000  0.333333      2.000000
  0.500000  0.000000  0.333333      2.000000
  0.000000  0.500000  0.333333      2.000000
  0.500000  0.500000  0.333333      2.000000

 Following cartesian coordinates:
            Coordinates               Weight
  0.000000  0.000000  0.000000      1.000000
  0.078551  0.014382 -0.000000      1.000000
  0.000000  0.052391  0.000021      1.000000
  0.078551  0.066773  0.000021      1.000000
  0.000000  0.000000  0.078162      2.000000
  0.078551  0.014382  0.078162      2.000000
  0.000000  0.052391  0.078183      2.000000
  0.078551  0.066773  0.078183      2.000000

 SYSTEM =  unknown system
 POSCAR =  EA0     6.365  9.702  4.265 90.02 90.00

 Startparameter for this run:
   NWRITE =      2    write-flag & timer
   PREC   = normal    normal or accurate (medium, high low for compatibility)
   ISTART =      0    job   : 0-new  1-cont  2-samecut
   ICHARG =      2    charge: 1-file 2-atom 10-const
   ISPIN  =      1    spin polarized calculation?
   LNONCOLLINEAR =      F non collinear calculations
   LSORBIT =      F    spin-orbit coupling
   INIWAV =      1    electr: 0-lowe 1-rand  2-diag
   LASPH  =      F    aspherical Exc in radial PAW
   METAGGA=      F    non-selfconsistent MetaGGA calc.

 Electronic Relaxation 1
   ENCUT  =  267.9 eV  19.69 Ry    4.44 a.u.   8.49 12.95  5.69*2*pi/ulx,y,z
   ENINI  =  267.9     initial cutoff
   ENAUG  =  511.4 eV  augmentation charge cutoff
   NELM   =     60;   NELMIN=  2; NELMDL= -5     # of ELM steps
   EDIFF  = 0.1E-04   stopping-criterion for ELM
   LREAL  =      F    real-space projection
   NLSPLINE    = F    spline interpolate recip. space projectors
   LCOMPAT=      F    compatible to vasp.4.4
   GGA_COMPAT  = T    GGA compatible to vasp.4.4-vasp.4.6
   LMAXPAW     = -100 max onsite density
   LMAXMIX     =    2 max onsite mixed and CHGCAR
   VOSKOWN=      0    Vosko Wilk Nusair interpolation
   ROPT   =    0.00000   0.00000
 Ionic relaxation
   EDIFFG = -.1E-01   stopping-criterion for IOM
   NSW    =    500    number of steps for IOM
   NBLOCK =      1;   KBLOCK =    500    inner block; outer block
   IBRION =      2    ionic relax: 0-MD 1-quasi-New 2-CG
   NFREE  =      1    steps in history (QN), initial steepest desc. (CG)
   ISIF   =      3    stress and relaxation
   IWAVPR =     11    prediction:  0-non 1-charg 2-wave 3-comb
   ISYM   =      2    0-nonsym 1-usesym 2-fastsym
   LCORR  =      T    Harris-Foulkes like correction to forces

   POTIM  = 0.5000    time-step for ionic-motion
   TEIN   =    0.0    initial temperature
   TEBEG  =    0.0;   TEEND  =   0.0 temperature during run
   SMASS  =  -3.00    Nose mass-parameter (am)
   estimated Nose-frequenzy (Omega)   =  0.10E-29 period in steps =****** mass=  -0.926E-27a.u.
   SCALEE = 1.0000    scale energy and forces
   NPACO  =    256;   APACO  = 16.0  distance and # of slots for P.C.
   PSTRESS=    0.0 pullay stress

  Mass of Ions in am
   POMASS =  50.94 55.85
  Ionic Valenz
   ZVAL   =   5.00  8.00
  Atomic Wigner-Seitz radii
  virtual crystal weights
   VCA    =   1.00  1.00
   NELECT =     109.0000    total number of electrons
   NUPDOWN=      -1.0000    fix difference up-down

 DOS related values:
   EMIN   =  10.00;   EMAX   =-10.00  energy-range for DOS
   EFERMI =   0.00
   ISMEAR =     0;   SIGMA  =   0.10  broadening in eV -4-tet -1-fermi 0-gaus

 Electronic relaxation 2 (details)
   IALGO  =     38    algorithm
   LDIAG  =      T    sub-space diagonalisation (order eigenvalues)
   LSUBROT=      F    optimize rotation matrix (better conditioning)
   TURBO    =      0    0=normal 1=particle mesh
   IRESTART =      0    0=no restart 2=restart with 2 vectors
   NREBOOT  =      0    no. of reboots
   NMIN     =      0    reboot dimension
   EREF     =   0.00    reference energy to select bands
   IMIX   =      4    mixing-type and parameters
     AMIX     =   0.40;   BMIX     =  1.00
     AMIX_MAG =   1.60;   BMIX_MAG =  1.00
     AMIN     =   0.10
     WC   =   100.;   INIMIX=   1;  MIXPRE=   1;  MAXMIX= -45

 Intra band minimization:
   WEIMIN = 0.0010     energy-eigenvalue tresh-hold
   EBREAK =  0.37E-07  absolut break condition
   DEPER  =   0.30     relativ break condition

   TIME   =   0.40     timestep for ELM

  volume/ion in A,a.u.               =      12.95        87.42
  Fermi-wavevector in a.u.,A,eV,Ry     =   1.226714  2.318154 20.474432  1.504828
  Thomas-Fermi vector in A             =   2.361705

 Write flags
   LWAVE        =      F    write WAVECAR
[...]
     -0.63568      8.60782      3.69822        -0.093149     -0.016770     -0.000834
      3.91783      1.44919      1.56684        -0.207714     -0.057080     -0.005534
      2.32432      3.37341      1.56460         0.159418      0.095931      0.001810
      4.31539      2.88411      3.69837        -0.012928      0.030061     -0.007058
     -0.97381      7.18577      1.56425         0.207095      0.054778      0.003594
     -0.11187      2.39622      1.56468        -0.094423     -0.050607      0.003902
      3.42270      7.64987      3.69737        -0.088282      0.029311      0.001433
      5.88596      0.98198      3.69858         0.095581     -0.023754     -0.001094
      4.65558      4.31751      1.56428        -0.003847     -0.004970     -0.002037
    total drift:                               -0.000883     -0.009073     -0.011125

  FREE ENERGIE OF THE ION-ELECTRON SYSTEM (eV)
  free  energy   TOTEN  =      -178.85544716 eV

  energy  without entropy=     -178.73791537  energy(sigma->0) =     -178.79668127

[...]

 d Force = 0.1130606E-01[ 0.402E-02, 0.186E-01]  d Energy =-0.9138908E-01 0.103E+00
 d Force = 0.6063561E+00[ 0.560E+00, 0.653E+00]  d Ewald  = 0.1231224E+03-0.123E+03

 Steepest descent step on ions:
 trial-energy change:    0.091389  1 .order    0.114661   -0.661615    0.890937
  (g-gl).g = 0.662E+00      g.g   = 0.662E+00  gl.gl    = 0.000E+00
 g(Force)  = 0.190E-01   g(Stress)= 0.643E+00 ortho     = 0.000E+00
 gamma     =   0.00000
 trial     =   1.00000
 opt step  =   0.44839  (harmonic =   0.42615) maximal distance =0.00477218
 next E    =  -179.005876   (d E  =  -0.15043)

[...]

 d Force =-0.4851881E-02[-0.741E-02,-0.229E-02]  d Energy = 0.2434197E+00-0.248E+00
 d Force =-0.3348735E+00[-0.350E+00,-0.319E+00]  d Ewald  =-0.6860036E+02 0.683E+02

[...]

 d Force = 0.6421826E-02[ 0.381E-02, 0.903E-02]  d Energy = 0.1666017E-01-0.102E-01
 d Force = 0.3286680E+00[ 0.301E+00, 0.357E+00]  d Ewald  =-0.2988507E+00 0.628E+00

 Conjugate gradient step on ions:
 trial-energy change:   -0.016660  1 .order   -0.016639   -0.021404   -0.011873
  (g-gl).g = 0.220E-01      g.g   = 0.240E-01  gl.gl    = 0.662E+00
 g(Force)  = 0.970E-02   g(Stress)= 0.143E-01 ortho     = 0.200E-02
 gamma     =   0.03324
 trial     =   0.88968
 opt step  =   1.99805  (harmonic =   1.99805) maximal distance =0.01589422
 next E    =  -179.031513   (d E  =  -0.02403)

[...]

 d Force = 0.4551809E-03[-0.384E-02, 0.475E-02]  d Energy = 0.7480332E-02-0.703E-02
 d Force = 0.3313016E+00[ 0.288E+00, 0.375E+00]  d Ewald  =-0.4563578E+00 0.788E+00

[...]

 d Force = 0.1288337E-02[ 0.814E-03, 0.176E-02]  d Energy = 0.4230999E-02-0.294E-02
 d Force =-0.5786643E-01[-0.644E-01,-0.513E-01]  d Ewald  =-0.4272194E+00 0.369E+00

[...]

 d Force = 0.2161296E-03[-0.685E-03, 0.112E-02]  d Energy = 0.2084409E-02-0.187E-02
 d Force =-0.1005306E+00[-0.113E+00,-0.882E-01]  d Ewald  =-0.6127046E+00 0.512E+00

[...]

 d Force = 0.5168162E-03[ 0.208E-03, 0.825E-03]  d Energy = 0.7197969E-03-0.203E-03
 d Force = 0.1618630E+00[ 0.157E+00, 0.167E+00]  d Ewald  = 0.3716023E+01-0.355E+01

 Conjugate gradient step on ions:
 trial-energy change:   -0.000720  1 .order   -0.000667   -0.001754    0.000419
  (g-gl).g = 0.137E-02      g.g   = 0.122E-02  gl.gl    = 0.483E-02
 g(Force)  = 0.710E-03   g(Stress)= 0.510E-03 ortho     = 0.633E-04
 gamma     =   0.28361
 trial     =   1.41620
 opt step  =   1.17226  (harmonic =   1.14305) maximal distance =0.00285530
 next E    =  -179.038689   (d E  =  -0.00076)

[...]

 d Force =-0.4302938E-04[-0.501E-04,-0.359E-04]  d Energy = 0.3133304E-04-0.744E-04
 d Force =-0.2723410E-01[-0.274E-01,-0.271E-01]  d Ewald  =-0.6396511E+00 0.612E+00

[...]

 d Force = 0.9078501E-04[-0.133E-03, 0.314E-03]  d Energy = 0.3597109E-03-0.269E-03
 d Force = 0.1116653E+00[ 0.108E+00, 0.115E+00]  d Ewald  =-0.1522591E+01 0.163E+01

 Conjugate gradient step on ions:
 trial-energy change:   -0.000360  1 .order   -0.000383   -0.000839    0.000074
  (g-gl).g = 0.132E-02      g.g   = 0.119E-02  gl.gl    = 0.122E-02
 g(Force)  = 0.168E-03   g(Stress)= 0.102E-02 ortho     =-0.130E-03
 gamma     =   1.08509
 trial     =   0.80325
 opt step  =   0.73837  (harmonic =   0.73837) maximal distance =0.00267959
 next E    =  -179.039071   (d E  =  -0.00039)

[...]

 d Force = 0.9962308E-05[ 0.920E-05, 0.107E-04]  d Energy = 0.7859134E-05 0.210E-05
 d Force =-0.8745528E-02[-0.877E-02,-0.872E-02]  d Ewald  = 0.1232578E+00-0.132E+00

[...]

 d Force = 0.6143239E-05[ 0.504E-05, 0.724E-05]  d Energy =-0.2279647E-05 0.842E-05
 d Force =-0.6920716E-02[-0.694E-02,-0.691E-02]  d Ewald  = 0.9702557E-01-0.104E+00

[...]

 d Force = 0.4405096E-04[ 0.348E-04, 0.533E-04]  d Energy = 0.5210151E-04-0.805E-05
 d Force =-0.1229986E-01[-0.125E-01,-0.121E-01]  d Ewald  =-0.2887042E+00 0.276E+00

 Conjugate gradient step on ions:
 trial-energy change:   -0.000052  1 .order   -0.000060   -0.000069   -0.000051
  (g-gl).g =-0.927E-05      g.g   = 0.878E-04  gl.gl    = 0.119E-02
 g(Force)  = 0.676E-04   g(Stress)= 0.203E-04 ortho     =-0.930E-05
 gamma     =  -0.00782
 trial     =   0.78005
 opt step  =   3.06064  (harmonic =   3.06064) maximal distance =0.00176986
 next E    =  -179.039185   (d E  =  -0.00013)

[...]

 d Force = 0.2965965E-05[-0.958E-04, 0.102E-03]  d Energy =-0.4757127E-04 0.505E-04
 d Force =-0.3804891E-01[-0.396E-01,-0.365E-01]  d Ewald  =-0.8459842E+00 0.808E+00

[...]

 eigenvalue-minimisations  :  1704
 total energy-change (2. order) :-0.2917443E-04  (-0.5195640E-04)
 number of electron     108.9999983 magnetization
 augmentation part       43.1029693 magnetization

[...]

 Broyden mixing:
  rms(total) = 0.31066E-02    rms(broyden)= 0.31047E-02
  rms(prec ) = 0.46889E-02
  weight for this iteration     100.00

 eigenvalues of (default mixing * dielectric matrix)
  average eigenvalue GAMMA=   0.5901
  1.5808  0.4655  0.1404  0.1737

[...]

--------------------------------------- Iteration     15(   6)  ---------------------------------------

 eigenvalue-minimisations  :  1508
 total energy-change (2. order) : 0.1398794E-06  (-0.6068263E-05)
 number of electron     108.9999983 magnetization
 augmentation part       43.1037553 magnetization

 Free energy of the ion-electron system (eV)
  alpha Z        PSCENC =       568.83832664
  Ewald energy   TEWEN  =     -5377.00277939
  -Hartree energ DENC   =      -602.38501802
  -exchange      EXHF   =         0.00000000
  -V(xc)+E(xc)   XCENC  =      -767.89412960
  PAW double counting   =      7778.92545076    -6976.86415377
  entropy T*S    EENTRO =        -0.11267085
  eigenvalues    EBANDS =       509.97162562
  atomic energy  EATOM  =      4687.48422623
  Solvation  Ediel_sol  =         0.00000000
  free energy    TOTEN  =      -179.03912237 eV

  energy without entropy =     -178.92645152  energy(sigma->0) =     -178.98278695

 average (electrostatic) potential at core
  the test charge radii are     1.2064  1.0103
  (the norm of the test charge is              1.0000)
       1 -38.6573       2 -38.9253       3 -39.0685       4 -39.1396       5 -38.6656
       6 -38.8020       7 -38.6657       8 -39.0695       9 -38.6574      10 -38.8460
      11 -38.8460      12 -38.9254      13 -38.6672      14 -38.8021      15 -39.0687
      16 -38.6670      17 -39.0697      18 -42.7561      19 -42.7561      20 -42.7369

 E-fermi :   6.5559     XC(G=0): -12.8026     alpha+bet :-15.7011

[...]

 k-point     8 :       0.5000    0.5000    0.3333
  band No.  band energies     occupation
      1       1.6454      2.00000
      2       1.7623      2.00000
      3       2.1773      2.00000
      4       2.2911      2.00000
      5       2.8396      2.00000
      6       3.0297      2.00000
      7       3.3969      2.00000
      8       3.3989      2.00000
      9       3.4763      2.00000
     10       3.5060      2.00000
     11       3.6380      2.00000
     12       3.6515      2.00000
     13       3.8066      2.00000
     14       3.8624      2.00000
     15       3.8679      2.00000
     16       3.8824      2.00000
     17       3.9514      2.00000
     18       3.9522      2.00000
     19       4.0004      2.00000
     20       4.0154      2.00000
     21       4.0727      2.00000
     22       4.0792      2.00000
     23       4.6857      2.00000
     24       4.8374      2.00000
     25       4.8829      2.00000
     26       4.9404      2.00000
     27       4.9471      2.00000
     28       4.9931      2.00000
     29       5.0647      2.00000
     30       5.1865      2.00000
     31       5.2031      2.00000
     32       5.2607      2.00000
     33       5.3452      2.00000
     34       5.3876      2.00000
     35       5.4260      2.00000
     36       5.4696      2.00000
     37       5.5951      2.00000
     38       5.6069      2.00000
     39       5.6627      2.00000
     40       5.6774      2.00000
     41       5.6896      2.00000
     42       5.7186      2.00000
     43       5.9064      2.00000
     44       5.9187      2.00000
     45       5.9998      2.00000
     46       6.0631      2.00000
     47       6.1029      2.00000
     48       6.1046      2.00000
     49       6.2537      1.99998
     50       6.2627      1.99997
     51       6.3601      1.99436
     52       6.4093      1.96178
     53       6.5164      1.42329
     54       6.5273      1.31409
     55       6.5915      0.61438
     56       6.6767      0.08732
     57       6.7417      0.00858
     58       6.7446      0.00761
     59       6.9383      0.00000
     60       6.9886      0.00000
     61       7.0704      0.00000
     62       7.1406      0.00000
     63       7.3881      0.00000
     64       7.4319      0.00000
     65       7.4907      0.00000
     66       7.5305      0.00000
     67       7.5380      0.00000
     68       7.6098      0.00000

 soft charge-density along one line, spin component           1
         0         1         2         3         4         5         6         7         8         9
 total charge-density along one line

------------------------ aborting loop because EDIFF is reached ----------------------------------------

  FORCE on cell =-STRESS in cart. coord.  units (eV):
  Direction    XX          YY          ZZ          XY          YZ          ZX
  Alpha Z   568.83833   568.83833   568.83833
  Ewald   -1838.45244 -1756.41350 -1782.15155   -13.83233    -0.01961    -0.00928
  Hartree   150.14142   233.43909   218.66359    -9.81778     0.00057    -0.00080
  E(xc)    -498.75929  -498.39494  -497.76469     0.24667     0.00082     0.00044
  Local     409.03641   247.18856   286.91002    23.13941     0.01609     0.00973
  n-local   -89.12431   -91.47572   -90.45822     0.38844     0.00031     0.00167
  augment   449.28350   448.66543   447.90103    -0.38769    -0.00258    -0.00133
  Kinetic   848.90709   848.07410   847.90241     0.25338     0.00418     0.00023
  Fock        0.00000     0.00000     0.00000     0.00000     0.00000     0.00000
  Total      -0.12929    -0.07865    -0.15908    -0.00991    -0.00023     0.00066
  in kB      -0.82330    -0.50084    -1.01297    -0.06313    -0.00144     0.00422

 VOLUME and BASIS-vectors are now :
  energy-cutoff  :      267.88
  volume of cell :      251.61
      direct lattice vectors                 reciprocal lattice vectors
     6.352525521 -0.059188342 -0.000237448     0.157699420  0.030235478 -0.000000912
    -1.832920794  9.559979350  0.002118926     0.000976359  0.104789928  0.000019983
     0.000176073 -0.000793139  4.150494922     0.000008523 -0.000051768  0.240935112

  length of vectors
     6.352801257  9.734105418  4.150495001     0.160571763  0.104794478  0.240935117

 FORCES acting on ions
    electron-ion (+dipol)            ewald-force                    non-local-force                 convergence-correction
   0.281E+02 0.110E+02 -.221E-01   -.290E+02 -.114E+02 0.246E-01   0.891E+00 0.377E+00 -.164E-02   0.944E-02 -.142E-01 -.174E-03
   0.521E+02 -.789E+01 0.694E-02   -.525E+02 0.777E+01 -.105E-01   0.342E+00 0.113E+00 0.343E-02   0.400E-02 0.930E-02 0.281E-04
   -.304E+02 -.473E+01 -.305E-01   0.308E+02 0.485E+01 0.339E-01   -.412E+00 -.671E-01 -.277E-02   -.645E-02 -.490E-01 -.661E-04
   -.812E-02 0.122E-01 0.201E-01   0.872E-02 -.118E-01 -.215E-01   -.587E-03 -.310E-03 0.130E-02   -.490E-04 -.499E-03 0.105E-03
   -.258E+02 -.196E+01 0.203E-01   0.264E+02 0.164E+01 -.249E-01   -.565E+00 0.307E+00 0.423E-02   -.325E-02 0.126E-01 0.152E-03
   -.283E+02 -.979E+01 -.872E-02   0.288E+02 0.985E+01 0.124E-01   -.481E+00 -.300E-01 -.302E-02   -.143E-01 -.355E-01 -.650E-04
   0.258E+02 0.197E+01 0.121E-01   -.264E+02 -.165E+01 -.149E-01   0.564E+00 -.307E+00 0.281E-02   0.326E-02 -.132E-01 0.569E-04
   0.333E+02 0.145E+02 -.608E-01   -.336E+02 -.147E+02 0.619E-01   0.301E+00 0.216E+00 -.233E-03   0.125E-01 -.466E-01 -.150E-03
   -.281E+02 -.110E+02 -.646E-02   0.290E+02 0.114E+02 0.622E-02   -.890E+00 -.380E+00 0.582E-03   -.941E-02 0.149E-01 0.281E-04
   -.242E+02 -.101E+02 0.263E-02   0.246E+02 0.101E+02 -.292E-02   -.459E+00 -.906E-01 0.245E-03   0.127E-02 0.372E-01 0.116E-03
   0.242E+02 0.101E+02 -.962E-02   -.247E+02 -.101E+02 0.136E-01   0.459E+00 0.910E-01 -.348E-02   -.130E-02 -.372E-01 -.663E-04
   -.521E+02 0.791E+01 0.169E-01   0.525E+02 -.779E+01 -.190E-01   -.342E+00 -.112E+00 0.183E-02   -.424E-02 -.101E-01 0.134E-03
   0.338E+02 0.187E+01 0.284E-03   -.347E+02 -.227E+01 -.228E-02   0.860E+00 0.366E+00 0.229E-02   0.508E-02 0.335E-01 -.725E-04
   0.283E+02 0.977E+01 0.401E-02   -.288E+02 -.983E+01 -.392E-02   0.481E+00 0.284E-01 0.369E-03   0.142E-01 0.361E-01 -.355E-04
   0.304E+02 0.470E+01 0.406E-02   -.308E+02 -.482E+01 -.183E-02   0.412E+00 0.659E-01 -.161E-02   0.638E-02 0.494E-01 -.113E-03
   -.338E+02 -.185E+01 -.174E-01   0.346E+02 0.226E+01 0.188E-01   -.861E+00 -.366E+00 -.125E-02   -.525E-02 -.339E-01 0.238E-04
   -.333E+02 -.145E+02 -.335E-01   0.336E+02 0.146E+02 0.315E-01   -.301E+00 -.217E+00 0.207E-02   -.121E-01 0.470E-01 0.108E-03
   0.174E+02 0.209E+02 0.433E-01   -.176E+02 -.215E+02 -.450E-01   0.240E+00 0.648E+00 0.184E-02   0.120E-01 -.348E-01 0.273E-04
   -.174E+02 -.209E+02 0.299E-01   0.177E+02 0.215E+02 -.334E-01   -.244E+00 -.650E+00 0.332E-02   -.116E-01 0.345E-01 0.153E-03
   0.206E-01 -.618E-01 0.237E-01   -.230E-01 0.634E-01 -.228E-01   0.214E-02 -.245E-02 -.157E-04   0.883E-04 0.534E-03 -.256E-03
   0.174E-02 0.170E-02 -.494E-02   -.373E-13 -.489E-13 -.141E-13   -.283E-02 -.992E-02 0.103E-01   0.220E-03 0.186E-03 -.651E-04

 POSITION                                       TOTAL-FORCE (eV/Angst)
      2.59422      4.76172      3.59837        -0.000242     -0.004163      0.000468
      3.57723     -0.00744      3.59917         0.001122      0.000317     -0.000332
      4.92900      5.70187      3.59853         0.000865      0.004177      0.000292
      3.68847      9.05417      1.52583         0.000009     -0.000034     -0.000291
      1.53949      0.47752      1.52421        -0.001427      0.001027     -0.000465
      0.55463      5.24487      1.52322         0.003406      0.001572      0.000296
      1.31785      8.13022      1.52521         0.001694     -0.000545     -0.000188
      2.99666      6.21577      1.52351        -0.006923      0.000275      0.000394
      0.26401      3.84515      3.59862        -0.000006      0.003616      0.000102
      1.84579      1.90316      3.59918         0.001830     -0.000931     -0.000201
      1.01207      6.70377      3.59910        -0.001753      0.001088      0.000185
     -0.71974      8.61434      3.60094        -0.000854     -0.000147     -0.000419
      3.87781      1.41429      1.52398         0.005638     -0.005218     -0.000047
      2.30336      3.36284      1.52345        -0.003635     -0.002075      0.000156
      4.28160      2.84564      3.59878        -0.001001     -0.004153      0.000243
     -1.02030      7.19334      1.52447        -0.005578      0.005529     -0.000043
     -0.13889      2.39185      1.52384         0.006846     -0.000204     -0.000140
      3.33556      7.62256      3.60017        -0.001580      0.000661     -0.000057
      5.87436      0.92490      3.59935         0.001690     -0.000879     -0.000243
      4.60542      4.27396      1.52345        -0.000101      0.000087      0.000290
    total drift:                               -0.000874     -0.008032      0.005291

  FREE ENERGIE OF THE ION-ELECTRON SYSTEM (eV)
  free  energy   TOTEN  =      -179.03912237 eV

  energy  without entropy=     -178.92645152  energy(sigma->0) =     -178.98278695

 d Force = 0.2746462E-04[ 0.521E-06, 0.544E-04]  d Energy = 0.6770268E-04-0.402E-04
 d Force = 0.2196761E-01[ 0.215E-01, 0.225E-01]  d Ewald  = 0.4809979E+00-0.459E+00

 reached required accuracy - stopping structural energy minimisation