 vasp.5.4.4.18Apr17-6-g9f103f2a35 (build Jul 11 2019 11:52:51) complex

 executed on             LinuxIFC date 2023.11.29  16:54:05

 INCAR:
 POTCAR:    PAW_PBE V 08Apr2002
 POTCAR:    PAW_PBE Fe 06Sep2000
 POTCAR:    PAW_PBE V 08Apr2002
   VRHFIN =V: p6 d4 s1

   TITEL  = PAW_PBE V 08Apr2002
   POMASS =   50.941; ZVAL   =    5.000    mass and valenz
   ENMAX  =  192.543; ENMIN  =  144.408 eV

 POTCAR:    PAW_PBE Fe 06Sep2000
   VRHFIN =Fe:  d7 s1

   TITEL  = PAW_PBE Fe 06Sep2000
   POMASS =   55.847; ZVAL   =    8.000    mass and valenz
   ENMAX  =  267.882; ENMIN  =  200.911 eV

  PAW_PBE V 08Apr2002                   :
  PAW_PBE Fe 06Sep2000                  :

 POSCAR: EA0     6.368  9.830  4.214 90.05 89.99
  positions in direct lattice
 exchange correlation table for  LEXCH =        8
   RHO(1)=    0.500       N(1)  =     2000
   RHO(2)=  100.500       N(2)  =     4000

 ion  position               nearest neighbor table
   1  0.568  0.474  0.124-  14 2.26   2 2.54   6 2.54   4 2.59   7 2.61   7 2.61  20 2.84  11 2.90
                            11 2.91   9 2.93   9 2.93   5 3.05  14 3.08  15 3.11
   2  0.965  0.575  0.125-  19 2.23  20 2.44   1 2.54   4 2.54  11 2.57  11 2.58  14 2.77  15 2.85
                             9 2.97   9 2.98   6 3.07  19 3.07  16 3.09
   3  0.950  0.068  0.125-  12 2.09  16 2.40   6 2.50   8 2.59   8 2.61   5 2.64  17 2.66  15 2.89
                            18 2.91  18 2.92  12 2.96  10 3.00  10 3.01   4 3.04
   4  0.163  0.373  0.123-   2 2.54   1 2.59   5 2.59   8 2.60   8 2.60   9 2.60   6 2.61   9 2.61
                             7 2.96   7 2.96  11 2.97  11 2.97   3 3.04  20 3.12
   5  0.365  0.167  0.124-  17 2.31   6 2.50  10 2.53  10 2.54   4 2.59   7 2.59   7 2.60   3 2.64
                            18 2.91  18 2.92  16 2.92   8 3.00   8 3.00   1 3.05
   6  0.756  0.267  0.123-   5 2.50   3 2.50  18 2.52  18 2.53   1 2.54   4 2.61  11 2.64  11 2.64
                            17 2.90   7 2.91   7 2.92   8 2.93   8 2.94   2 3.07
   7  0.464  0.320  0.623-  18 2.46  11 2.55   9 2.55   5 2.59   5 2.60   8 2.60   1 2.61   1 2.61
                             6 2.91   6 2.92  10 2.92   4 2.96   4 2.96
   8  0.055  0.221  0.624-  18 2.49  10 2.54  11 2.57   3 2.59   4 2.60   4 2.60   7 2.60   3 2.61
                            12 2.93   6 2.93   6 2.94   5 3.00   5 3.00   9 3.05
   9  0.272  0.525  0.625-  20 2.23  14 2.46   7 2.55   4 2.60   4 2.61  11 2.62  19 2.84   1 2.93
                             1 2.93   2 2.97   2 2.98   8 3.05  20 3.06  13 3.08
  10  0.267  0.026  0.626-  16 2.16  13 2.35  17 2.42   5 2.53  18 2.53   8 2.54   5 2.54  12 2.76
                             7 2.92  19 2.99   3 3.00   3 3.01  16 3.01
  11  0.861  0.428  0.624-   7 2.55   2 2.57   8 2.57   2 2.58   9 2.62   6 2.64   6 2.64  14 2.77
                             1 2.90   1 2.91   4 2.97   4 2.97  18 2.99  19 3.08
  12  0.838  0.936  0.502-   3 2.09  18 2.41  19 2.51  15 2.58  15 2.58  13 2.61  10 2.76   8 2.93
                            14 2.95  16 2.95  16 2.95  17 2.96  17 2.96   3 2.96
  13  0.428  0.836  0.502-  10 2.35  19 2.51  14 2.56  20 2.57  20 2.58  17 2.59  17 2.59  12 2.61
                            16 2.91  16 2.91  15 2.95  15 2.95  18 3.01   9 3.08
  14  0.641  0.640  0.501-   1 2.26   9 2.46  19 2.51  13 2.56  15 2.57  15 2.57  11 2.77   2 2.77
                            12 2.95  20 2.98  20 2.98   1 3.08
  15  0.730  0.788  0.002-  17 2.49  20 2.55  14 2.57  14 2.57  12 2.58  12 2.58  16 2.59   2 2.85
                             3 2.89  13 2.95  13 2.95  19 2.97  19 2.97   1 3.11
  16  0.138  0.886  0.002-  10 2.16   3 2.40  20 2.50  17 2.54  19 2.58  19 2.58  15 2.59  13 2.91
                            13 2.91   5 2.92  12 2.95  12 2.95  10 3.01   2 3.09
  17  0.536  0.986  0.002-  18 2.17   5 2.31  10 2.42  15 2.49  16 2.54  13 2.59  13 2.59   3 2.66
                             6 2.90  12 2.96  12 2.96  20 2.98  18 3.01
  18  0.663  0.127  0.625-  17 2.17  12 2.41   7 2.46   8 2.49   6 2.52  10 2.53   6 2.53   5 2.91
                             3 2.91   5 2.92   3 2.92  11 2.99  17 3.01  13 3.01
  19  0.035  0.737  0.502-   2 2.23  12 2.51  14 2.51  13 2.51  16 2.58  16 2.58   9 2.84  20 2.93
                            20 2.93  15 2.97  15 2.97  10 2.99   2 3.07  11 3.08
  20  0.332  0.687  0.001-   9 2.23   2 2.44  16 2.50  15 2.55  13 2.57  13 2.58   1 2.84  19 2.93
                            19 2.93  14 2.98  14 2.98  17 2.98   9 3.06   4 3.12

  LATTYP: Found a triclinic cell.
 ALAT       =    15.1497112643
 B/A-ratio  =     0.4203130930
 C/A-ratio  =     0.2781514101
 COS(alpha) =     0.0001929323
 COS(beta)  =     0.2777572710
 COS(gamma) =     0.7188595089

  Lattice vectors:

 A1 = ( -10.8905140000,  -9.6516010000,  -4.2139120000)
 A2 = (  -6.3676220000,   0.0000000000,   0.0000000000)
 A3 = (  -0.0008130000,   0.0035230000,  -4.2139120000)

Analysis of symmetry for initial positions (statically):
 Subroutine PRICEL returns:
 Original cell was already a primitive cell.

 Routine SETGRP: Setting up the symmetry group for a
 triclinic supercell.

 Subroutine GETGRP returns: Found  1 space group operations
 (whereof  1 operations were pure point group operations)
 out of a pool of  2 trial point group operations.

The static configuration has the point symmetry C_1 .

Analysis of symmetry for dynamics (positions and initial velocities):
 Subroutine PRICEL returns:
 Original cell was already a primitive cell.

 Routine SETGRP: Setting up the symmetry group for a
 triclinic supercell.

 Subroutine GETGRP returns: Found  1 space group operations
 (whereof  1 operations were pure point group operations)
 out of a pool of  2 trial point group operations.

The dynamic configuration has the point symmetry C_1 .

 Subroutine INISYM returns: Found  1 space group operations
 (whereof  1 operations are pure point group operations),
 and found     1 'primitive' translations

 KPOINTS: EA

Automatic generation of k-mesh.
Space group operators:
 irot       det(A)        alpha          n_x          n_y          n_z        tau_x        tau_y        tau_z
    1     1.000000     0.000000     1.000000     0.000000     0.000000     0.000000     0.000000     0.000000

 Subroutine IBZKPT returns following result:

 Found      8 irreducible k-points:

 Following reciprocal coordinates:
            Coordinates               Weight
  0.000000  0.000000  0.000000      1.000000
  0.500000 -0.000000 -0.000000      1.000000
  0.000000  0.500000  0.000000      1.000000
  0.500000  0.500000  0.000000      1.000000
  0.000000  0.000000  0.333333      2.000000
  0.500000 -0.000000  0.333333      2.000000
  0.000000  0.500000  0.333333      2.000000
  0.500000  0.500000  0.333333      2.000000

 Following cartesian coordinates:
            Coordinates               Weight
  0.000000  0.000000  0.000000      1.000000
  0.078522  0.015009 -0.000003      1.000000
  0.000000  0.051786  0.000043      1.000000
  0.078522  0.066795  0.000041      1.000000
  0.000000  0.000000  0.079103      2.000000
  0.078522  0.015009  0.079100      2.000000
  0.000000  0.051786  0.079146      2.000000
  0.078522  0.066795  0.079144      2.000000

 SYSTEM =  unknown system
 POSCAR =  EA0     6.368  9.830  4.214 90.05 89.99

 Startparameter for this run:
   NWRITE =      2    write-flag & timer
   PREC   = normal    normal or accurate (medium, high low for compatibility)
   ISTART =      0    job   : 0-new  1-cont  2-samecut
   ICHARG =      2    charge: 1-file 2-atom 10-const
   ISPIN  =      1    spin polarized calculation?
   LNONCOLLINEAR =      F non collinear calculations
   LSORBIT =      F    spin-orbit coupling
   INIWAV =      1    electr: 0-lowe 1-rand  2-diag
   LASPH  =      F    aspherical Exc in radial PAW
   METAGGA=      F    non-selfconsistent MetaGGA calc.

 Electronic Relaxation 1
   ENCUT  =  267.9 eV  19.69 Ry    4.44 a.u.   8.50 13.12  5.62*2*pi/ulx,y,z
   ENINI  =  267.9     initial cutoff
   ENAUG  =  511.4 eV  augmentation charge cutoff
   NELM   =     60;   NELMIN=  2; NELMDL= -5     # of ELM steps
   EDIFF  = 0.1E-04   stopping-criterion for ELM
   LREAL  =      F    real-space projection
   NLSPLINE    = F    spline interpolate recip. space projectors
   LCOMPAT=      F    compatible to vasp.4.4
   GGA_COMPAT  = T    GGA compatible to vasp.4.4-vasp.4.6
   LMAXPAW     = -100 max onsite density
   LMAXMIX     =    2 max onsite mixed and CHGCAR
   VOSKOWN=      0    Vosko Wilk Nusair interpolation
   ROPT   =    0.00000   0.00000
 Ionic relaxation
   EDIFFG = -.1E-01   stopping-criterion for IOM
   NSW    =    500    number of steps for IOM
   NBLOCK =      1;   KBLOCK =    500    inner block; outer block
   IBRION =      2    ionic relax: 0-MD 1-quasi-New 2-CG
   NFREE  =      1    steps in history (QN), initial steepest desc. (CG)
   ISIF   =      3    stress and relaxation
   IWAVPR =     11    prediction:  0-non 1-charg 2-wave 3-comb
   ISYM   =      2    0-nonsym 1-usesym 2-fastsym
   LCORR  =      T    Harris-Foulkes like correction to forces

   POTIM  = 0.5000    time-step for ionic-motion
   TEIN   =    0.0    initial temperature
   TEBEG  =    0.0;   TEEND  =   0.0 temperature during run
   SMASS  =  -3.00    Nose mass-parameter (am)
   estimated Nose-frequenzy (Omega)   =  0.10E-29 period in steps =****** mass=  -0.927E-27a.u.
   SCALEE = 1.0000    scale energy and forces
   NPACO  =    256;   APACO  = 16.0  distance and # of slots for P.C.
   PSTRESS=    0.0 pullay stress

  Mass of Ions in am
   POMASS =  50.94 55.85
  Ionic Valenz
   ZVAL   =   5.00  8.00
  Atomic Wigner-Seitz radii
  virtual crystal weights
   VCA    =   1.00  1.00
   NELECT =     109.0000    total number of electrons
   NUPDOWN=      -1.0000    fix difference up-down

 DOS related values:
   EMIN   =  10.00;   EMAX   =-10.00  energy-range for DOS
   EFERMI =   0.00
   ISMEAR =     0;   SIGMA  =   0.10  broadening in eV -4-tet -1-fermi 0-gaus

 Electronic relaxation 2 (details)
   IALGO  =     38    algorithm
   LDIAG  =      T    sub-space diagonalisation (order eigenvalues)
   LSUBROT=      F    optimize rotation matrix (better conditioning)
   TURBO    =      0    0=normal 1=particle mesh
   IRESTART =      0    0=no restart 2=restart with 2 vectors
   NREBOOT  =      0    no. of reboots
   NMIN     =      0    reboot dimension
   EREF     =   0.00    reference energy to select bands
   IMIX   =      4    mixing-type and parameters
     AMIX     =   0.40;   BMIX     =  1.00
     AMIX_MAG =   1.60;   BMIX_MAG =  1.00
     AMIN     =   0.10
     WC   =   100.;   INIMIX=   1;  MIXPRE=   1;  MAXMIX= -45

 Intra band minimization:
   WEIMIN = 0.0010     energy-eigenvalue tresh-hold
   EBREAK =  0.37E-07  absolut break condition
   DEPER  =   0.30     relativ break condition

   TIME   =   0.40     timestep for ELM

  volume/ion in A,a.u.               =      12.95        87.42
  Fermi-wavevector in a.u.,A,eV,Ry     =   1.226714  2.318154 20.474431  1.504828
  Thomas-Fermi vector in A             =   2.361705

 Write flags
   LWAVE        =      F    write WAVECAR
   LDOWNSAMPLE  =      F    k-point downsampling of WAVECAR
   LCHARG       =      F    write CHGCAR
[...]
    total drift:                                0.001497     -0.003961     -0.001274

  FREE ENERGIE OF THE ION-ELECTRON SYSTEM (eV)
  free  energy   TOTEN  =      -175.72362700 eV

  energy  without entropy=     -175.60575932  energy(sigma->0) =     -175.66469316

[...]

 d Force = 0.1949379E+01[ 0.844E+00, 0.306E+01]  d Energy = 0.1957292E+01-0.791E-02
 d Force = 0.2690997E+02[ 0.133E+02, 0.405E+02]  d Ewald  = 0.3899278E+02-0.121E+02

 Steepest descent step on ions:
 trial-energy change:   -1.957292  1 .order   -2.007947   -3.130606   -0.885288
  (g-gl).g = 0.313E+01      g.g   = 0.313E+01  gl.gl    = 0.000E+00
 g(Force)  = 0.307E+01   g(Stress)= 0.586E-01 ortho     = 0.000E+00
 gamma     =   0.00000
 trial     =   1.00000
 opt step  =   1.49425  (harmonic =   1.39428) maximal distance =0.20037738
 next E    =  -177.893581   (d E  =  -2.16995)

[...]

 d Force = 0.1948492E+00[-0.286E-01, 0.418E+00]  d Energy = 0.2028324E+00-0.798E-02
 d Force = 0.3554034E+01[ 0.517E+00, 0.659E+01]  d Ewald  = 0.9711711E+01-0.616E+01

[...]

 Conjugate gradient step on ions:
 trial-energy change:   -0.479676  1 .order   -0.471658   -0.673035   -0.270281
  (g-gl).g = 0.667E+00      g.g   = 0.622E+00  gl.gl    = 0.313E+01
 g(Force)  = 0.562E+00   g(Stress)= 0.604E-01 ortho     =-0.450E-01
 gamma     =   0.21310
 trial     =   1.09885
 opt step  =   1.72010  (harmonic =   1.83627) maximal distance =0.08163358
 next E    =  -178.441280   (d E  =  -0.55753)

[...]

 d Force = 0.1549801E+00[ 0.656E-01, 0.244E+00]  d Energy = 0.2417971E+00-0.868E-01
 d Force = 0.9790440E+00[-0.443E+00, 0.240E+01]  d Ewald  =-0.4071976E+02 0.417E+02

[...]

 d Force = 0.8886329E-02[ 0.621E-02, 0.116E-01]  d Energy = 0.5156331E-02 0.373E-02
 d Force =-0.1231354E+00[-0.167E+00,-0.789E-01]  d Ewald  =-0.7453782E+01 0.733E+01

[...]

 d Force = 0.8473304E-01[ 0.739E-01, 0.956E-01]  d Energy = 0.8866877E-01-0.394E-02
 d Force = 0.4042729E-01[-0.863E-01, 0.167E+00]  d Ewald  = 0.4292991E+01-0.425E+01

[...]

 d Force = 0.1186692E+00[ 0.160E-01, 0.221E+00]  d Energy = 0.1199205E+00-0.125E-02
 d Force =-0.1426793E+01[-0.259E+01,-0.261E+00]  d Ewald  = 0.1136822E+02-0.128E+02

[...]

 d Force = 0.6674507E-01[ 0.505E-01, 0.830E-01]  d Energy = 0.6852807E-01-0.178E-02
 d Force = 0.1664110E+01[ 0.145E+01, 0.188E+01]  d Ewald  =-0.1075232E+02 0.124E+02

 Conjugate gradient step on ions:
 trial-energy change:   -0.068528  1 .order   -0.068453   -0.093394   -0.043513
  (g-gl).g = 0.881E-01      g.g   = 0.891E-01  gl.gl    = 0.157E+00
 g(Force)  = 0.759E-01   g(Stress)= 0.132E-01 ortho     = 0.313E-02
 gamma     =   0.56258
 trial     =   1.02762
 opt step  =   1.92407  (harmonic =   1.92407) maximal distance =0.04173675
 next E    =  -178.985792   (d E  =  -0.08743)

[...]

 d Force = 0.1183159E-01[ 0.184E-02, 0.218E-01]  d Energy = 0.1177298E-01 0.586E-04
 d Force = 0.3548846E-01[-0.977E-01, 0.169E+00]  d Ewald  =-0.2819186E+01 0.285E+01

[...]

 d Force =-0.7977907E-04[-0.804E-04,-0.792E-04]  d Energy = 0.6111482E-05-0.859E-04
 d Force =-0.3207695E-02[-0.324E-02,-0.318E-02]  d Ewald  = 0.2853571E+00-0.289E+00

[...]

 d Force = 0.1205745E-03[ 0.111E-03, 0.130E-03]  d Energy = 0.4822604E-04 0.723E-04
 d Force =-0.9268824E-02[-0.948E-02,-0.905E-02]  d Ewald  = 0.6062185E+00-0.615E+00

[...]

 d Force = 0.1857647E-03[ 0.149E-03, 0.222E-03]  d Energy =-0.5765240E-04 0.243E-03
 d Force =-0.1983372E-01[-0.207E-01,-0.190E-01]  d Ewald  = 0.1211562E+01-0.123E+01

[...]

 d Force =-0.1090091E-03[-0.113E-03,-0.105E-03]  d Energy = 0.6345171E-04-0.172E-03
 d Force = 0.1412423E-01[ 0.137E-01, 0.146E-01]  d Ewald  =-0.8522383E+00 0.866E+00

[...]

 d Force = 0.4942534E-03[ 0.344E-03, 0.644E-03]  d Energy = 0.6518766E-03-0.158E-03
 d Force =-0.1066617E-01[-0.140E-01,-0.729E-02]  d Ewald  =-0.8684669E+00 0.858E+00

[...]

 d Force = 0.1611567E-03[-0.352E-04, 0.358E-03]  d Energy = 0.1922256E-03-0.311E-04
 d Force =-0.1823502E-01[-0.219E-01,-0.146E-01]  d Ewald  =-0.9094565E+00 0.891E+00

[...]

 d Force = 0.1102161E-03[ 0.547E-04, 0.166E-03]  d Energy = 0.4431381E-04 0.659E-04
 d Force = 0.7376165E-01[ 0.730E-01, 0.745E-01]  d Ewald  =-0.1712009E+01 0.179E+01

 Conjugate gradient step on ions:
 trial-energy change:   -0.000044  1 .order   -0.000067   -0.000328    0.000194
  (g-gl).g = 0.247E-03      g.g   = 0.302E-03  gl.gl    = 0.416E-03
 g(Force)  = 0.127E-03   g(Stress)= 0.176E-03 ortho     = 0.277E-04
 gamma     =   0.59291
 trial     =   1.02991
 opt step  =   0.64682  (harmonic =   0.64682) maximal distance =0.00119903
 next E    =  -179.067164   (d E  =  -0.00010)

[...]

 d Force =-0.2444962E-04[-0.286E-04,-0.203E-04]  d Energy = 0.3864035E-04-0.631E-04
 d Force =-0.2728636E-01[-0.274E-01,-0.272E-01]  d Ewald  = 0.6368413E+00-0.664E+00

[...]

 d Force =-0.1089185E-04[-0.119E-04,-0.988E-05]  d Energy =-0.4080466E-05-0.681E-05
 d Force =-0.9482938E-02[-0.950E-02,-0.947E-02]  d Ewald  = 0.2202334E+00-0.230E+00

[...]

 eigenvalue-minimisations  :  1736
 total energy-change (2. order) :-0.1335738E-04  (-0.3051833E-04)
 number of electron     109.0000040 magnetization
 augmentation part       43.0525820 magnetization

 Broyden mixing:
  rms(total) = 0.29154E-02    rms(broyden)= 0.29142E-02
  rms(prec ) = 0.46835E-02
  weight for this iteration     100.00

 eigenvalues of (default mixing * dielectric matrix)
  average eigenvalue GAMMA=   0.6214
  1.4666  0.2579  0.1396

[...]

--------------------------------------- Iteration     37(   5)  ---------------------------------------

 eigenvalue-minimisations  :  1496
 total energy-change (2. order) : 0.8309237E-05  (-0.9364233E-05)
 number of electron     109.0000040 magnetization
 augmentation part       43.0525820 magnetization

 Free energy of the ion-electron system (eV)
  alpha Z        PSCENC =       567.87188802
  Ewald energy   TEWEN  =     -5360.65941951
  -Hartree energ DENC   =      -615.69136074
  -exchange      EXHF   =         0.00000000
  -V(xc)+E(xc)   XCENC  =      -767.89581001
  PAW double counting   =      7763.35140827    -6961.36934586
  entropy T*S    EENTRO =        -0.10241187
  eigenvalues    EBANDS =       507.94360040
  atomic energy  EATOM  =      4687.48422623
  Solvation  Ediel_sol  =         0.00000000
  free energy    TOTEN  =      -179.06722506 eV

  energy without entropy =     -178.96481319  energy(sigma->0) =     -179.01601913

 average (electrostatic) potential at core
  the test charge radii are     1.2064  1.0103
  (the norm of the test charge is              1.0000)
       1 -38.8804       2 -39.0444       3 -38.6794       4 -38.6959       5 -38.6662
       6 -38.9400       7 -38.8599       8 -38.8168       9 -39.0847      10 -38.8593
      11 -38.7001      12 -39.0086      13 -39.1047      14 -38.8063      15 -38.8420
      16 -39.0976      17 -38.9699      18 -42.7285      19 -42.7851      20 -42.7976

 E-fermi :   6.5552     XC(G=0): -12.7955     alpha+bet :-15.6744

[...]

 k-point     8 :       0.5000    0.5000    0.3333
  band No.  band energies     occupation
      1       1.5880      2.00000
      2       1.8932      2.00000
      3       1.9828      2.00000
      4       2.2748      2.00000
      5       2.9530      2.00000
      6       2.9857      2.00000
      7       3.3080      2.00000
      8       3.3964      2.00000
      9       3.5054      2.00000
     10       3.6095      2.00000
     11       3.6426      2.00000
     12       3.6703      2.00000
     13       3.7021      2.00000
     14       3.7965      2.00000
     15       3.8098      2.00000
     16       3.8336      2.00000
     17       3.8758      2.00000
     18       3.9569      2.00000
     19       4.0336      2.00000
     20       4.0724      2.00000
     21       4.0875      2.00000
     22       4.1157      2.00000
     23       4.6942      2.00000
     24       4.7658      2.00000
     25       4.8072      2.00000
     26       4.8470      2.00000
     27       4.9359      2.00000
     28       4.9962      2.00000
     29       5.1253      2.00000
     30       5.2120      2.00000
     31       5.2522      2.00000
     32       5.3006      2.00000
     33       5.3569      2.00000
     34       5.3711      2.00000
     35       5.3870      2.00000
     36       5.4287      2.00000
     37       5.4811      2.00000
     38       5.5380      2.00000
     39       5.5805      2.00000
     40       5.6208      2.00000
     41       5.7837      2.00000
     42       5.7885      2.00000
     43       5.8672      2.00000
     44       5.8837      2.00000
     45       5.9282      2.00000
     46       5.9765      2.00000
     47       6.0219      2.00000
     48       6.0770      2.00000
     49       6.1795      2.00000
     50       6.2508      1.99998
     51       6.3754      1.98901
     52       6.4039      1.96771
     53       6.4694      1.77552
     54       6.5150      1.43085
     55       6.5894      0.62877
     56       6.6889      0.05866
     57       6.7458      0.00704
     58       6.7597      0.00384
     59       6.9104      0.00000
     60       6.9859      0.00000
     61       7.1309      0.00000
     62       7.1653      0.00000
     63       7.3436      0.00000
     64       7.3776      0.00000
     65       7.5102      0.00000
     66       7.5275      0.00000
     67       7.5979      0.00000
     68       7.6654      0.00000

 soft charge-density along one line, spin component           1
         0         1         2         3         4         5         6         7         8         9
 total charge-density along one line

------------------------ aborting loop because EDIFF is reached ----------------------------------------

  FORCE on cell =-STRESS in cart. coord.  units (eV):
  Direction    XX          YY          ZZ          XY          YZ          ZX
  Alpha Z   567.87189   567.87189   567.87189
  Ewald   -1774.35595 -1840.83052 -1745.48723   -21.22518     0.62886     0.15886
  Hartree   217.72344   147.51850   250.37998    -4.25178     0.13684     0.01722
  E(xc)    -497.89898  -498.59850  -497.72587     1.02890    -0.01395    -0.00472
  Local     278.78582   417.93845   218.33712    23.92453    -0.71246    -0.15952
  n-local   -86.59510   -91.15839   -87.96882     0.66121     0.00196     0.00492
  augment   447.74867   449.47599   447.55791    -1.03716    -0.00338    -0.00355
  Kinetic   846.70350   847.76952   847.00765     0.91287    -0.03569    -0.01197
  Fock        0.00000     0.00000     0.00000     0.00000     0.00000     0.00000
  Total      -0.01671    -0.01307    -0.02737     0.01339     0.00217     0.00123
  in kB      -0.10624    -0.08308    -0.17401     0.08509     0.01380     0.00779

 VOLUME and BASIS-vectors are now :
  energy-cutoff  :      267.88
  volume of cell :      252.04
      direct lattice vectors                 reciprocal lattice vectors
     6.373882486  0.029080088 -0.000447830     0.156755052  0.029632683  0.000006633
    -1.804056785  9.543347822  0.001663639    -0.000477653  0.104694725  0.000068563
     0.000337035 -0.002709599  4.139863193     0.000017149 -0.000038867  0.241553849

  length of vectors
     6.373948839  9.712368985  4.139864094     0.159531321  0.104695837  0.241553853

 FORCES acting on ions
    electron-ion (+dipol)            ewald-force                    non-local-force                 convergence-correction
   -.151E+02 0.417E+02 0.394E-01   0.154E+02 -.418E+02 -.507E-01   -.320E+00 0.562E-01 0.135E-01   0.766E-02 -.294E-01 -.605E-02
   0.335E+02 0.562E+02 0.285E+00   -.337E+02 -.563E+02 -.293E+00   0.255E+00 0.147E+00 0.163E-02   -.118E-02 -.223E-01 -.178E-02
   -.173E+02 -.200E+02 -.651E-01   0.181E+02 0.199E+02 0.769E-01   -.750E+00 0.822E-01 -.885E-02   -.102E-02 0.330E-01 0.157E-02
   -.296E+01 0.301E+02 0.223E-01   0.275E+01 -.305E+02 -.275E-01   0.218E+00 0.490E+00 0.559E-02   -.711E-02 -.351E-01 -.853E-04
   0.209E+02 -.206E+02 -.112E-01   -.216E+02 0.209E+02 0.178E-01   0.731E+00 -.280E+00 -.660E-02   -.237E-02 0.237E-02 -.126E-02
   -.611E+01 -.255E+02 0.140E+00   0.617E+01 0.257E+02 -.137E+00   -.630E-01 -.114E+00 -.418E-02   0.835E-02 -.257E-01 -.354E-03
   0.168E+02 -.104E+02 -.112E-01   -.171E+02 0.104E+02 0.738E-02   0.299E+00 0.290E-02 0.400E-02   0.656E-02 -.355E-01 -.349E-02
   -.233E+02 -.134E+02 -.327E-01   0.236E+02 0.133E+02 0.337E-01   -.309E+00 0.767E-01 0.334E-02   -.825E-02 -.131E-01 -.931E-03
   -.149E+02 0.734E+02 0.241E+00   0.151E+02 -.736E+02 -.251E+00   -.177E+00 0.231E+00 0.620E-02   -.834E-02 -.261E-01 -.225E-02
   0.275E+02 -.298E+02 -.865E-01   -.277E+02 0.302E+02 0.979E-01   0.237E+00 -.494E+00 -.593E-02   0.470E-03 0.385E-01 0.330E-02
   0.476E+01 0.236E+02 -.383E-01   -.463E+01 -.237E+02 0.369E-01   -.137E+00 0.997E-01 0.480E-02   0.564E-02 -.312E-01 -.298E-02
   -.244E+01 -.219E+02 -.495E-01   0.234E+01 0.220E+02 0.607E-01   0.904E-01 -.115E+00 -.149E-01   -.804E-04 0.438E-01 0.471E-02
   -.310E+02 -.333E+02 -.178E+00   0.311E+02 0.331E+02 0.178E+00   -.983E-01 0.238E+00 -.722E-03   -.652E-02 0.177E-01 0.324E-02
   0.833E+00 0.316E+02 0.136E+00   -.211E+00 -.318E+02 -.152E+00   -.634E+00 0.223E+00 0.891E-02   0.125E-01 -.138E-01 -.173E-02
   -.901E+01 -.113E+02 -.221E-01   0.834E+01 0.115E+02 0.300E-01   0.659E+00 -.223E+00 -.938E-02   0.606E-02 0.972E-02 0.711E-04
   0.195E+02 -.609E+02 -.151E+00   -.195E+02 0.610E+02 0.152E+00   0.248E-01 -.742E-01 -.558E-02   -.111E-01 0.281E-01 0.457E-02
   -.152E+01 -.973E+01 0.507E-01   0.150E+01 0.101E+02 -.444E-01   0.182E-01 -.378E+00 -.672E-02   0.233E-02 0.489E-01 0.245E-02
   -.629E+01 -.315E+02 -.174E+00   0.640E+01 0.318E+02 0.187E+00   -.120E+00 -.278E+00 -.108E-01   0.121E-01 0.387E-01 0.112E-02
   0.428E+02 -.108E+01 -.936E-01   -.442E+02 0.126E+01 0.921E-01   0.140E+01 -.176E+00 -.466E-02   -.793E-02 -.123E-01 0.307E-02
   -.366E+02 0.328E+02 0.764E-02   0.379E+02 -.334E+02 -.148E-01   -.131E+01 0.570E+00 0.888E-02   -.817E-02 -.727E-02 0.448E-03
   -.133E-01 -.983E-01 0.833E-02   0.000E+00 0.000E+00 -.764E-14   0.101E-01 0.848E-01 -.215E-01   -.324E-03 0.910E-02 0.363E-02

 POSITION                                       TOTAL-FORCE (eV/Angst)
      2.62028      4.61137      0.31605         0.001350     -0.005290     -0.003385
      5.05050      5.57437      0.31599         0.002185      0.004025     -0.008070
      5.94863      0.74559      0.30780        -0.002187     -0.001758      0.004983
      0.26721      3.61688      0.31380         0.002383      0.004639      0.000722
      1.90466      1.70538      0.31007        -0.001695      0.001135     -0.000770
      4.27492      2.67313      0.31243         0.001381      0.001278     -0.001090
      2.28774      3.13012      2.38344         0.002548      0.002468     -0.002863
     -0.13122      2.17846      2.38081         0.003682     -0.003421      0.003938
      0.61931      5.08028      2.38605         0.006260     -0.002219     -0.005674
      1.61160      0.28550      2.37776        -0.002876     -0.000731      0.009211
      4.63607      4.13911      2.38430         0.005051     -0.001812      0.000847
      3.77334      8.86792      2.37956        -0.004467      0.001459      0.001523
      1.35648      7.87435      2.38095        -0.004833      0.002510      0.002594
      3.04160      6.02155      2.38609         0.000511      0.000440     -0.008586
      3.34542      7.44195      0.31234        -0.001571      0.005083     -0.000971
     -0.59074      8.35701      0.31029        -0.004451     -0.003880      0.000647
      1.77319      9.36476      0.31017        -0.005168     -0.002385      0.002525
      3.92054      1.21547      2.37881         0.003927      0.000649      0.004326
     -0.97398      6.96983      2.38280         0.001118     -0.003364     -0.002532
      1.00926      6.49893      0.31355        -0.003149      0.001173      0.002626
    total drift:                               -0.003501     -0.004401     -0.009514

  FREE ENERGIE OF THE ION-ELECTRON SYSTEM (eV)
  free  energy   TOTEN  =      -179.06722506 eV

  energy  without entropy=     -178.96481319  energy(sigma->0) =     -179.01601913

 d Force = 0.7949815E-04[ 0.509E-04, 0.108E-03]  d Energy = 0.8499411E-04-0.550E-05
 d Force = 0.3947782E-01[ 0.391E-01, 0.399E-01]  d Ewald  = 0.3630916E+00-0.324E+00

 Conjugate gradient step on ions:
 trial-energy change:   -0.000085  1 .order   -0.000090   -0.000127   -0.000053
  (g-gl).g = 0.150E-03      g.g   = 0.138E-03  gl.gl    = 0.302E-03
 g(Force)  = 0.719E-04   g(Stress)= 0.658E-04 ortho     =-0.210E-05
 gamma     =   0.49728
 trial     =   0.92680
 opt step  =   1.59933  (harmonic =   1.59933) maximal distance =0.00185823
 next E    =  -179.067249   (d E  =  -0.00011)

 reached required accuracy - stopping structural energy minimisation