 vasp.5.4.4.18Apr17-6-g9f103f2a35 (build Jul 11 2019 11:52:51) complex

 executed on             LinuxIFC date 2023.11.29  16:56:05

 INCAR:
 POTCAR:    PAW_PBE V 08Apr2002
 POTCAR:    PAW_PBE Fe 06Sep2000
 POTCAR:    PAW_PBE V 08Apr2002
   VRHFIN =V: p6 d4 s1

   TITEL  = PAW_PBE V 08Apr2002
   POMASS =   50.941; ZVAL   =    5.000    mass and valenz
   ENMAX  =  192.543; ENMIN  =  144.408 eV

 POTCAR:    PAW_PBE Fe 06Sep2000
   VRHFIN =Fe:  d7 s1

   TITEL  = PAW_PBE Fe 06Sep2000
   POMASS =   55.847; ZVAL   =    8.000    mass and valenz
   ENMAX  =  267.882; ENMIN  =  200.911 eV

  PAW_PBE V 08Apr2002                   :
  PAW_PBE Fe 06Sep2000                  :

 POSCAR: EA0     6.719  6.719  6.719 70.02 70.02
  positions in direct lattice
 exchange correlation table for  LEXCH =        8
   RHO(1)=    0.500       N(1)  =     2000
   RHO(2)=  100.500       N(2)  =     4000

 ion  position               nearest neighbor table
   1  0.500  0.500  0.000-  12 2.32  13 2.32   7 2.45  10 2.45   8 2.45   5 2.45  16 2.54  17 2.54

   2  0.000  0.500  0.500-  12 2.32  13 2.32   6 2.45   9 2.45   8 2.45   5 2.45  16 2.54  17 2.54

[...]

   5  0.215  0.743  0.215-   4 2.27  13 2.36  14 2.37   2 2.45   1 2.45  19 2.72  18 2.72   9 2.72
                            10 2.72  11 2.87  17 3.15
   6  0.215  0.215  0.743-   4 2.27  13 2.36  14 2.37   2 2.45   3 2.45  19 2.72  20 2.72  10 2.72
                             8 2.72  11 2.87  17 3.15
   7  0.743  0.215  0.215-   4 2.27  13 2.36  14 2.37   1 2.45   3 2.45  20 2.72  18 2.72   9 2.72
                             8 2.72  11 2.87  17 3.15
   8  0.785  0.257  0.785-   4 2.27  12 2.36  15 2.37   2 2.45   1 2.45  19 2.72  18 2.72   6 2.72
                             7 2.72  11 2.87  16 3.15
   9  0.785  0.785  0.257-   4 2.27  12 2.36  15 2.37   2 2.45   3 2.45  19 2.72  20 2.72   7 2.72
                             5 2.72  11 2.87  16 3.15
  10  0.257  0.785  0.785-   4 2.27  12 2.36  15 2.37   1 2.45   3 2.45  20 2.72  18 2.72   6 2.72
                             5 2.72  11 2.87  16 3.15
  11  0.500  0.500  0.500-  12 1.85  13 1.85   6 2.87   9 2.87   8 2.87   5 2.87   7 2.87  10 2.87

[...]

  16  0.748  0.748  0.748-  15 1.82  12 1.90   3 2.54   1 2.54   2 2.54  18 2.57  20 2.57  19 2.57
                             8 3.15  10 3.15   9 3.15
  17  0.252  0.252  0.252-  14 1.82  13 1.90   3 2.54   1 2.54   2 2.54  18 2.57  20 2.57  19 2.57
                             5 3.15   7 3.15   6 3.15
  18  0.000  0.000  0.500-  14 2.29  15 2.29  16 2.57  17 2.57   7 2.72  10 2.72   8 2.72   5 2.72

[...]

  20  0.000  0.500  0.000-  14 2.29  15 2.29  16 2.57  17 2.57   7 2.72  10 2.72   9 2.72   6 2.72

  LATTYP: Found a trigonal (rhomboedric) cell.
 ALAT       =     6.7188150138
 COS(alpha) =     0.3416379221

  Lattice vectors:

 A1 = (   6.7188150000,   0.0000000000,   0.0000000000)
 A2 = (   2.2954020000,   6.3145550000,   0.0000000000)
 A3 = (   2.2954020000,   1.6079540000,   6.1063980000)

Analysis of symmetry for initial positions (statically):
 Subroutine PRICEL returns:
 Original cell was already a primitive cell.

 Routine SETGRP: Setting up the symmetry group for a
 trigonal (rhombohedral) supercell.

 Subroutine GETGRP returns: Found 12 space group operations
 (whereof 12 operations were pure point group operations)
 out of a pool of 12 trial point group operations.

The static configuration has the point symmetry D_3d.

Analysis of symmetry for dynamics (positions and initial velocities):
 Subroutine PRICEL returns:
 Original cell was already a primitive cell.

 Routine SETGRP: Setting up the symmetry group for a
 trigonal (rhombohedral) supercell.

 Subroutine GETGRP returns: Found 12 space group operations
 (whereof 12 operations were pure point group operations)
 out of a pool of 12 trial point group operations.

The dynamic configuration has the point symmetry D_3d.

 Subroutine INISYM returns: Found 12 space group operations
 (whereof 12 operations are pure point group operations),
 and found     1 'primitive' translations

 KPOINTS: EA

Automatic generation of k-mesh.
Space group operators:
 irot       det(A)        alpha          n_x          n_y          n_z        tau_x        tau_y        tau_z
    1     1.000000     0.000000     1.000000     0.000000     0.000000     0.000000     0.000000     0.000000
    2    -1.000000     0.000000     1.000000     0.000000     0.000000     0.000000     0.000000     0.000000
    3     1.000000   180.000000     0.000000    -0.610474     0.792036     0.000000     0.000000     0.000000
    4    -1.000000   180.000000     0.000000    -0.610474     0.792036     0.000000     0.000000     0.000000
    5     1.000000   120.000000    -0.749061    -0.524725    -0.404440     0.000000     0.000000     0.000000
    6    -1.000000   120.000000    -0.749061    -0.524725    -0.404440     0.000000     0.000000     0.000000
    7     1.000000   180.000000    -0.573743     0.819035    -0.000000     0.000000     0.000000     0.000000
    8    -1.000000   180.000000    -0.573743     0.819035    -0.000000     0.000000     0.000000     0.000000
    9     1.000000   120.000000     0.749061     0.524725     0.404440     0.000000     0.000000     0.000000
   10    -1.000000   120.000000     0.749061     0.524725     0.404440     0.000000     0.000000     0.000000
   11     1.000000   180.000000    -0.573743     0.208561     0.792036     0.000000     0.000000     0.000000
   12    -1.000000   180.000000    -0.573743     0.208561     0.792036     0.000000     0.000000     0.000000

 Subroutine IBZKPT returns following result:

 Found      4 irreducible k-points:

 Following reciprocal coordinates:
            Coordinates               Weight
  0.000000  0.000000  0.000000      1.000000
  0.500000 -0.000000 -0.000000      3.000000
  0.500000  0.500000 -0.000000      3.000000
  0.500000  0.500000  0.500000      1.000000

 Following cartesian coordinates:
            Coordinates               Weight
  0.000000  0.000000  0.000000      1.000000
  0.074418 -0.027052 -0.020850      3.000000
  0.074418  0.052131 -0.041701      3.000000
  0.074418  0.052131  0.040180      1.000000

 SYSTEM =  unknown system
 POSCAR =  EA0     6.719  6.719  6.719 70.02 70.02

 Startparameter for this run:
   NWRITE =      2    write-flag & timer
   PREC   = normal    normal or accurate (medium, high low for compatibility)
   ISTART =      0    job   : 0-new  1-cont  2-samecut
   ICHARG =      2    charge: 1-file 2-atom 10-const
   ISPIN  =      1    spin polarized calculation?
   LNONCOLLINEAR =      F non collinear calculations
   LSORBIT =      F    spin-orbit coupling
   INIWAV =      1    electr: 0-lowe 1-rand  2-diag
   LASPH  =      F    aspherical Exc in radial PAW
   METAGGA=      F    non-selfconsistent MetaGGA calc.

 Electronic Relaxation 1
   ENCUT  =  267.9 eV  19.69 Ry    4.44 a.u.   8.97  8.97  8.97*2*pi/ulx,y,z
   ENINI  =  267.9     initial cutoff
   ENAUG  =  511.4 eV  augmentation charge cutoff
   NELM   =     60;   NELMIN=  2; NELMDL= -5     # of ELM steps
   EDIFF  = 0.1E-04   stopping-criterion for ELM
   LREAL  =      F    real-space projection
   NLSPLINE    = F    spline interpolate recip. space projectors
   LCOMPAT=      F    compatible to vasp.4.4
   GGA_COMPAT  = T    GGA compatible to vasp.4.4-vasp.4.6
   LMAXPAW     = -100 max onsite density
   LMAXMIX     =    2 max onsite mixed and CHGCAR
   VOSKOWN=      0    Vosko Wilk Nusair interpolation
   ROPT   =    0.00000   0.00000
 Ionic relaxation
   EDIFFG = -.1E-01   stopping-criterion for IOM
   NSW    =    500    number of steps for IOM
   NBLOCK =      1;   KBLOCK =    500    inner block; outer block
   IBRION =      2    ionic relax: 0-MD 1-quasi-New 2-CG
   NFREE  =      1    steps in history (QN), initial steepest desc. (CG)
   ISIF   =      3    stress and relaxation
   IWAVPR =     11    prediction:  0-non 1-charg 2-wave 3-comb
   ISYM   =      2    0-nonsym 1-usesym 2-fastsym
   LCORR  =      T    Harris-Foulkes like correction to forces

   POTIM  = 0.5000    time-step for ionic-motion
   TEIN   =    0.0    initial temperature
   TEBEG  =    0.0;   TEEND  =   0.0 temperature during run
   SMASS  =  -3.00    Nose mass-parameter (am)
   estimated Nose-frequenzy (Omega)   =  0.10E-29 period in steps =****** mass=  -0.103E-26a.u.
   SCALEE = 1.0000    scale energy and forces
   NPACO  =    256;   APACO  = 16.0  distance and # of slots for P.C.
   PSTRESS=    0.0 pullay stress

  Mass of Ions in am
   POMASS =  50.94 55.85
  Ionic Valenz
   ZVAL   =   5.00  8.00
  Atomic Wigner-Seitz radii
  virtual crystal weights
   VCA    =   1.00  1.00
   NELECT =     109.0000    total number of electrons
   NUPDOWN=      -1.0000    fix difference up-down

 DOS related values:
   EMIN   =  10.00;   EMAX   =-10.00  energy-range for DOS
   EFERMI =   0.00
   ISMEAR =     0;   SIGMA  =   0.10  broadening in eV -4-tet -1-fermi 0-gaus

 Electronic relaxation 2 (details)
   IALGO  =     38    algorithm
   LDIAG  =      T    sub-space diagonalisation (order eigenvalues)
   LSUBROT=      F    optimize rotation matrix (better conditioning)
   TURBO    =      0    0=normal 1=particle mesh
   IRESTART =      0    0=no restart 2=restart with 2 vectors
   NREBOOT  =      0    no. of reboots
   NMIN     =      0    reboot dimension
   EREF     =   0.00    reference energy to select bands
   IMIX   =      4    mixing-type and parameters
     AMIX     =   0.40;   BMIX     =  1.00
     AMIX_MAG =   1.60;   BMIX_MAG =  1.00
     AMIN     =   0.10
     WC   =   100.;   INIMIX=   1;  MIXPRE=   1;  MAXMIX= -45

 Intra band minimization:
   WEIMIN = 0.0010     energy-eigenvalue tresh-hold
   EBREAK =  0.37E-07  absolut break condition
   DEPER  =   0.30     relativ break condition

   TIME   =   0.40     timestep for ELM

  volume/ion in A,a.u.               =      12.95        87.42
  Fermi-wavevector in a.u.,A,eV,Ry     =   1.226714  2.318154 20.474433  1.504828
  Thomas-Fermi vector in A             =   2.361705

 Write flags
   LWAVE        =      F    write WAVECAR
   LDOWNSAMPLE  =      F    k-point downsampling of WAVECAR
   LCHARG       =      F    write CHGCAR
   LVTOT        =      F    write LOCPOT, total local potential
   LVHAR        =      F    write LOCPOT, Hartree potential only
   LELF         =      F    write electronic localiz. function (ELF)
   LORBIT       =      0    0 simple, 1 ext, 2 COOP (PROOUT), +10 PAW based schemes

 Dipole corrections
   LMONO  =      F    monopole corrections only (constant potential shift)
   LDIPOL =      F    correct potential (dipole corrections)
   IDIPOL =      0    1-x, 2-y, 3-z, 4-all directions
   EPSILON=  1.0000000 bulk dielectric constant

 Exchange correlation treatment:
   GGA     =    --    GGA type
   VOSKOWN=      0    Vosko Wilk Nusair interpolation
   LHFCALC =     F    Hartree Fock is set to
   LHFONE  =     F    Hartree Fock one center treatment
   AEXX    =    0.0000 exact exchange contribution

 Linear response parameters
   LEPSILON=     F    determine dielectric tensor
   LRPA    =     F    only Hartree local field effects (RPA)
   LNABLA  =     F    use nabla operator in PAW spheres
[...]
 next E    =  -154.930826   (d E  =  -0.13941)

[...]

 Conjugate gradient step on ions:
 trial-energy change:   -0.076797  1 .order   -0.076935   -0.082984   -0.070886
  (g-gl).g = 0.676E-01      g.g   = 0.693E-01  gl.gl    = 0.118E+00
 g(Force)  = 0.686E-01   g(Stress)= 0.722E-03 ortho     = 0.210E-02
 gamma     =   0.57435
 trial     =   1.17721
 opt step  =   4.70885  (harmonic =   8.07537) maximal distance =0.10963540
 next E    =  -155.215860   (d E  =  -0.28462)

[...]

 d Force = 0.1634141E+00[ 0.105E+00, 0.222E+00]  d Energy = 0.1638498E+00-0.436E-03
 d Force = 0.1581380E+01[-0.247E+01, 0.564E+01]  d Ewald  = 0.7654486E+01-0.607E+01

[...]

 d Force =-0.6075391E-01[-0.333E+00, 0.211E+00]  d Energy =-0.7466077E-01 0.139E-01
 d Force =-0.2328522E+02[-0.417E+02,-0.491E+01]  d Ewald  =-0.1111359E+02-0.122E+02

[...]

 d Force = 0.3518651E-01[ 0.320E-01, 0.383E-01]  d Energy = 0.3534556E-01-0.159E-03
 d Force =-0.1423852E+01[-0.156E+01,-0.128E+01]  d Ewald  = 0.1273908E+01-0.270E+01

[...]

 d Force = 0.2929434E-04[-0.280E-02, 0.286E-02]  d Energy = 0.2488307E-02-0.246E-02
 d Force = 0.2296895E+00[ 0.184E+00, 0.275E+00]  d Ewald  = 0.9181890E+01-0.895E+01

[...]

 d Force = 0.5880285E-03[ 0.321E-03, 0.855E-03]  d Energy = 0.8027677E-03-0.215E-03
 d Force =-0.5896955E-01[-0.632E-01,-0.547E-01]  d Ewald  =-0.2787571E+01 0.273E+01

[...]

 d Force = 0.3063396E+00[-0.163E+00, 0.776E+00]  d Energy = 0.6161236E+00-0.310E+00
 d Force =-0.5062545E+02[-0.636E+02,-0.377E+02]  d Ewald  =-0.7743349E+02 0.268E+02

[...]

 d Force = 0.1299254E-02[-0.246E-01, 0.272E-01]  d Energy =-0.2797756E-02 0.410E-02
 d Force = 0.9362842E+01[ 0.901E+01, 0.972E+01]  d Ewald  = 0.1382892E+02-0.447E+01

[...]

 d Force =-0.2913705E-02[-0.693E-02, 0.111E-02]  d Energy = 0.3791592E-02-0.671E-02
 d Force =-0.3968288E+01[-0.402E+01,-0.391E+01]  d Ewald  =-0.4988973E+01 0.102E+01

[...]

 d Force =-0.2111469E-03[-0.281E-03,-0.141E-03]  d Energy = 0.1941254E-03-0.405E-03
 d Force =-0.2587930E+00[-0.260E+00,-0.257E+00]  d Ewald  =-0.1765906E+01 0.151E+01

[...]

 d Force =-0.2835378E-03[-0.355E-03,-0.212E-03]  d Energy = 0.3924550E-03-0.676E-03
 d Force = 0.2198067E+00[ 0.219E+00, 0.221E+00]  d Ewald  = 0.2886334E+01-0.267E+01

[...]

 d Force = 0.9777679E-03[ 0.270E-03, 0.169E-02]  d Energy = 0.8445104E-03 0.133E-03
 d Force = 0.6426875E+00[ 0.629E+00, 0.656E+00]  d Ewald  = 0.2424141E+01-0.178E+01

[...]

 d Force = 0.6080476E-03[ 0.533E-03, 0.683E-03]  d Energy = 0.6848560E-03-0.768E-04
 d Force =-0.4604691E-03[-0.181E-02, 0.888E-03]  d Ewald  =-0.1172386E+01 0.117E+01

[...]

 Broyden mixing:
  rms(total) = 0.33760E-01    rms(broyden)= 0.29534E-01
  rms(prec ) = 0.59090E-01
  weight for this iteration     100.00
  WARNING: grid for Broyden might be to small

[...]

 Conjugate gradient step on ions:
 trial-energy change:   -0.000537  1 .order   -0.000561   -0.000679   -0.000443
  (g-gl).g = 0.181E-02      g.g   = 0.194E-02  gl.gl    = 0.130E-02
 g(Force)  = 0.548E-03   g(Stress)= 0.139E-02 ortho     = 0.132E-03
 gamma     =   1.39108
 trial     =   0.31939
 opt step  =   0.92194  (harmonic =   0.92194) maximal distance =0.00585528
 next E    =  -157.031712   (d E  =  -0.00098)

[...]

 d Force = 0.4875982E-04[ 0.367E-04, 0.608E-04]  d Energy = 0.5192592E-04-0.317E-05
 d Force =-0.9082381E-01[-0.911E-01,-0.906E-01]  d Ewald  = 0.2608147E+00-0.352E+00

[...]

 d Force = 0.2041929E-04[-0.326E-04, 0.734E-04]  d Energy =-0.1684692E-04 0.373E-04
 d Force =-0.1832014E+00[-0.184E+00,-0.182E+00]  d Ewald  = 0.5202368E+00-0.703E+00

[...]

 d Force = 0.1844331E-03[ 0.665E-04, 0.302E-03]  d Energy = 0.2621147E-03-0.777E-04
 d Force = 0.3996411E-01[ 0.371E-01, 0.428E-01]  d Ewald  =-0.1729360E+00 0.213E+00

[...]

 d Force = 0.4503508E-05[-0.101E-04, 0.191E-04]  d Energy = 0.8589845E-05-0.409E-05
 d Force = 0.1048773E-01[ 0.103E-01, 0.107E-01]  d Ewald  =-0.5057695E-01 0.611E-01

[...]

 d Force = 0.2899657E-04[-0.246E-04, 0.826E-04]  d Energy = 0.5027863E-04-0.213E-04
 d Force =-0.6554266E+00[-0.656E+00,-0.654E+00]  d Ewald  =-0.1480475E+00-0.507E+00

[...]

 d Force = 0.3328293E-05[-0.320E-06, 0.698E-05]  d Energy = 0.3148556E-05 0.180E-06
 d Force = 0.1861713E+00[ 0.186E+00, 0.186E+00]  d Ewald  = 0.4225600E-01 0.144E+00

[...]

 d Force =-0.1363233E-05[-0.259E-05,-0.132E-06]  d Energy =-0.5718046E-05 0.435E-05
 d Force = 0.7661803E-01[ 0.766E-01, 0.766E-01]  d Ewald  = 0.1734235E-01 0.593E-01

[...]

 d Force = 0.7496192E-06[ 0.388E-06, 0.111E-05]  d Energy = 0.1021409E-05-0.272E-06
 d Force =-0.3281723E-01[-0.328E-01,-0.328E-01]  d Ewald  =-0.7424807E-02-0.254E-01

[...]

 d Force =-0.1103109E-06[-0.479E-06, 0.259E-06]  d Energy = 0.2031904E-05-0.214E-05
 d Force =-0.2189990E-01[-0.219E-01,-0.219E-01]  d Ewald  =-0.4957657E-02-0.169E-01

[...]

 d Force =-0.3590057E-06[-0.107E-05, 0.353E-06]  d Energy = 0.2599538E-05-0.296E-05
 d Force = 0.1613726E-01[ 0.161E-01, 0.161E-01]  d Ewald  = 0.3653322E-02 0.125E-01

[...]

 eigenvalue-minimisations  :  1088
 total energy-change (2. order) :-0.2298154E-02  (-0.1259629E-02)
 number of electron     108.9999528 magnetization
 augmentation part       44.7123946 magnetization

[...]

 Broyden mixing:
  rms(total) = 0.21767E-02    rms(broyden)= 0.21739E-02
  rms(prec ) = 0.50488E-02
  weight for this iteration     100.00

 eigenvalues of (default mixing * dielectric matrix)
  average eigenvalue GAMMA=   0.4250
  1.0949  0.3258  0.1104  0.1687

[...]

--------------------------------------- Iteration     78(   6)  ---------------------------------------

 eigenvalue-minimisations  :   624
 total energy-change (2. order) : 0.3379910E-05  (-0.4790700E-05)
 number of electron     108.9999529 magnetization
 augmentation part       44.7319561 magnetization

 Free energy of the ion-electron system (eV)
  alpha Z        PSCENC =       478.78140584
  Ewald energy   TEWEN  =     -4724.17258443
  -Hartree energ DENC   =      -984.47452490
  -exchange      EXHF   =         0.00000000
  -V(xc)+E(xc)   XCENC  =      -773.18726062
  PAW double counting   =      7871.23242922    -7066.87846959
  entropy T*S    EENTRO =        -0.14768147
  eigenvalues    EBANDS =       354.32930420
  atomic energy  EATOM  =      4687.48422623
  Solvation  Ediel_sol  =         0.00000000
  free energy    TOTEN  =      -157.03315552 eV

  energy without entropy =     -156.88547405  energy(sigma->0) =     -156.95931479

 average (electrostatic) potential at core
  the test charge radii are     1.2064  1.0103
  (the norm of the test charge is              1.0000)
       1 -40.8045       2 -40.8045       3 -40.8045       4 -40.5887       5 -40.6013
       6 -40.6013       7 -40.6013       8 -40.6013       9 -40.6013      10 -40.6013
      11 -40.0017      12 -40.0429      13 -40.0429      14 -40.0305      15 -40.0305
      16 -40.6855      17 -40.6855      18 -44.0584      19 -44.0584      20 -44.0584

 E-fermi :   5.2362     XC(G=0): -11.6599     alpha+bet :-13.2153

[...]

 k-point     4 :       0.5000    0.5000    0.5000
  band No.  band energies     occupation
      1      -0.3349      2.00000
      2       0.4426      2.00000
      3       1.4508      2.00000
      4       1.4508      2.00000
      5       1.8506      2.00000
      6       1.8506      2.00000
      7       1.9503      2.00000
      8       1.9929      2.00000
      9       1.9929      2.00000
     10       2.1262      2.00000
     11       2.1737      2.00000
     12       2.1737      2.00000
     13       2.2360      2.00000
     14       2.2360      2.00000
     15       2.4321      2.00000
     16       2.5439      2.00000
     17       2.5439      2.00000
     18       2.7220      2.00000
     19       2.7220      2.00000
     20       2.8706      2.00000
     21       2.9485      2.00000
     22       3.0048      2.00000
     23       3.0048      2.00000
     24       3.0239      2.00000
     25       3.0296      2.00000
     26       3.0296      2.00000
     27       3.2089      2.00000
     28       3.2089      2.00000
     29       3.3363      2.00000
     30       3.3662      2.00000
     31       3.4889      2.00000
     32       3.6106      2.00000
     33       3.6150      2.00000
     34       3.6150      2.00000
     35       3.6313      2.00000
     36       3.6313      2.00000
     37       3.8427      2.00000
     38       3.8427      2.00000
     39       4.0168      2.00000
     40       4.0168      2.00000
     41       4.1307      2.00000
     42       4.1364      2.00000
     43       4.3201      2.00000
     44       4.6710      2.00000
     45       4.7556      2.00000
     46       4.7556      2.00000
     47       4.8413      2.00000
     48       4.8413      2.00000
     49       4.8876      2.00000
     50       4.8876      2.00000
     51       4.9102      2.00000
     52       5.1079      1.93051
     53       5.1079      1.93051
     54       5.1939      1.45022
     55       5.3667      0.06513
     56       5.3667      0.06513
     57       5.4209      0.00900
     58       5.4209      0.00900
     59       5.4706      0.00092
     60       5.5473      0.00001
     61       5.5473      0.00001
     62       5.6495      0.00000
     63       5.8844      0.00000
     64       5.8844      0.00000
     65       5.9302      0.00000
     66       6.1341      0.00000
     67       6.1341      0.00000
     68       6.1707      0.00000

 soft charge-density along one line, spin component           1
         0         1         2         3         4         5         6         7         8         9
 total charge-density along one line

------------------------ aborting loop because EDIFF is reached ----------------------------------------

  FORCE on cell =-STRESS in cart. coord.  units (eV):
  Direction    XX          YY          ZZ          XY          YZ          ZX
  Alpha Z   478.78141   478.78141   478.78141
  Ewald   -1714.12703 -1539.23177 -1470.82676  -240.56482  -129.88811  -185.41907
  Hartree   216.21102   356.70350   411.65291  -193.24448  -104.33839  -148.94618
  E(xc)    -500.32750  -498.74941  -498.13219    -2.17064    -1.17199    -1.67305
  Local     349.87890    27.55431   -98.51329   443.35078   239.37817   341.71949
  n-local  -144.62972  -133.09797  -134.88999   -10.37622    -6.51728    -7.12723
  augment   451.32899   451.33999   451.34432    -0.01511    -0.00814    -0.01165
  Kinetic   861.29320   859.14181   859.70152     3.76481    -0.84923     3.45538
  Fock        0.00000     0.00000     0.00000     0.00000     0.00000     0.00000
  Total      -0.01296    -0.00964    -0.00834    -0.00456    -0.00246    -0.00352
  in kB      -0.06945    -0.05167    -0.04472    -0.02445    -0.01320    -0.01884

 VOLUME and BASIS-vectors are now :
  energy-cutoff  :      267.88
  volume of cell :      298.94
      direct lattice vectors                 reciprocal lattice vectors
     7.313515053  0.428490766  0.330265977     0.142254224 -0.059115006 -0.045563809
     2.901283277  6.727084290  0.330265986    -0.006958715  0.153890949 -0.045563824
     2.901283344  2.032380352  6.421228684    -0.006958715 -0.004874654  0.160420444

  length of vectors
     7.333497282  7.333497346  7.333497989     0.160645289  0.160645293  0.160645276

 FORCES acting on ions
    electron-ion (+dipol)            ewald-force                    non-local-force                 convergence-correction
   -.484E-12 -.180E-12 -.665E-12   0.806E-12 0.225E-11 0.147E-11   0.120E-24 -.171E-24 -.103E-23   -.723E-13 0.105E-12 -.120E-12
   0.102E-12 0.722E-13 0.123E-12   0.210E-11 0.179E-11 -.377E-12   -.368E-24 -.405E-24 0.245E-24   -.693E-13 -.173E-13 0.131E-13
   -.340E-12 -.880E-13 -.178E-12   0.230E-11 -.413E-11 0.274E-11   0.126E-24 0.603E-24 0.117E-24   -.449E-13 -.144E-12 0.251E-13
   0.253E-12 0.156E-12 -.678E-13   0.370E-12 -.335E-12 0.340E-12   -.143E-23 0.938E-24 -.713E-24   0.424E-13 -.180E-12 -.287E-12
   0.410E+02 0.563E+02 0.149E+02   -.406E+02 -.560E+02 -.146E+02   -.416E+00 -.291E+00 -.225E+00   -.707E-03 -.284E-02 0.236E-03
   0.410E+02 0.287E+02 0.507E+02   -.406E+02 -.284E+02 -.504E+02   -.416E+00 -.292E+00 -.224E+00   -.707E-03 -.495E-03 -.281E-02
   0.669E+02 0.193E+02 0.149E+02   -.665E+02 -.190E+02 -.146E+02   -.416E+00 -.292E+00 -.225E+00   -.291E-02 0.306E-03 0.236E-03
   -.410E+02 -.563E+02 -.149E+02   0.406E+02 0.560E+02 0.146E+02   0.416E+00 0.291E+00 0.225E+00   0.707E-03 0.284E-02 -.236E-03
   -.410E+02 -.287E+02 -.507E+02   0.406E+02 0.284E+02 0.504E+02   0.416E+00 0.292E+00 0.224E+00   0.707E-03 0.495E-03 0.281E-02
   -.669E+02 -.193E+02 -.149E+02   0.665E+02 0.190E+02 0.146E+02   0.416E+00 0.292E+00 0.225E+00   0.291E-02 -.306E-03 -.236E-03
   -.361E-12 0.562E-12 0.167E-12   -.356E-11 -.131E-11 -.225E-11   -.378E-25 -.799E-25 0.981E-25   0.858E-13 0.229E-12 0.954E-13
   -.138E+02 -.967E+01 -.745E+01   0.121E+02 0.846E+01 0.652E+01   0.174E+01 0.122E+01 0.938E+00   -.707E-02 -.495E-02 -.382E-02
   0.138E+02 0.967E+01 0.745E+01   -.121E+02 -.846E+01 -.652E+01   -.174E+01 -.122E+01 -.938E+00   0.707E-02 0.495E-02 0.382E-02
   0.568E+02 0.398E+02 0.307E+02   -.525E+02 -.368E+02 -.283E+02   -.428E+01 -.300E+01 -.231E+01   -.180E-01 -.126E-01 -.969E-02
   -.568E+02 -.398E+02 -.307E+02   0.525E+02 0.368E+02 0.283E+02   0.428E+01 0.300E+01 0.231E+01   0.180E-01 0.126E-01 0.969E-02
   0.734E+02 0.514E+02 0.396E+02   -.749E+02 -.525E+02 -.404E+02   0.148E+01 0.104E+01 0.799E+00   -.112E-02 -.782E-03 -.603E-03
   -.734E+02 -.514E+02 -.396E+02   0.749E+02 0.525E+02 0.404E+02   -.148E+01 -.104E+01 -.799E+00   0.112E-02 0.782E-03 0.603E-03
   0.209E-12 -.243E-13 0.494E-12   -.994E-12 -.137E-11 0.114E-12   0.885E-24 -.281E-25 -.639E-25   -.413E-13 -.288E-12 0.877E-12
   -.839E-12 -.890E-12 -.218E-11   -.632E-12 -.149E-11 -.525E-12   -.135E-23 0.109E-23 0.131E-23   0.220E-12 -.278E-12 -.401E-13
   0.613E-13 0.476E-12 -.145E-12   -.669E-12 0.344E-12 -.485E-12   -.375E-24 0.229E-24 0.325E-24   -.148E-12 0.668E-12 -.570E-12
   -.271E-11 0.318E-11 -.345E-11   -.640E-13 -.143E-13 0.498E-13   -.838E-24 0.444E-15 -.444E-15   0.661E-12 -.305E-13 0.294E-12

 POSITION                                       TOTAL-FORCE (eV/Angst)
      5.10740      3.57779      0.33027        -0.000000     -0.000000      0.000000
      2.90128      4.37973      3.37575         0.000000     -0.000000      0.000000
      5.10740      1.23044      3.37575        -0.000000     -0.000000      0.000000
     -0.00000      0.00000     -0.00000         0.000000     -0.000000      0.000000
      5.14617      5.82623      2.19366        -0.002658      0.001614     -0.002350
      5.14617      3.60495      5.07557        -0.002658     -0.001862      0.002159
      7.23380      2.84607      2.19366         0.000609     -0.003049     -0.002350
      7.96991      3.36173      4.88810         0.002658     -0.001614      0.002350
      7.96991      5.58301      2.00619         0.002658      0.001862     -0.002159
      5.88228      6.34188      4.88810        -0.000609      0.003049      0.002350
      6.55804      4.59398      3.54088        -0.000000     -0.000000      0.000000
      8.41580      5.89536      4.54394         0.002143      0.001501      0.001157
      4.70028      3.29260      2.53782        -0.002143     -0.001501     -0.001157
      1.39950      0.98036      0.75563        -0.007054     -0.004941     -0.003808
     11.71658      8.20759      6.32613         0.007054      0.004941      0.003808
     10.14442      7.10628      5.47727        -0.006181     -0.004330     -0.003337
      2.97166      2.08168      1.60449         0.006181      0.004330      0.003337
      1.45064      1.01619      3.21061         0.000000     -0.000000      0.000000
      3.65676      0.21425      0.16513        -0.000000     -0.000000      0.000000
      1.45064      3.36354      0.16513        -0.000000     -0.000000      0.000000
    total drift:                               -0.000000      0.000000     -0.000000

  FREE ENERGIE OF THE ION-ELECTRON SYSTEM (eV)
  free  energy   TOTEN  =      -157.03315552 eV

  energy  without entropy=     -156.88547405  energy(sigma->0) =     -156.95931479

 d Force = 0.1694628E-04[-0.641E-05, 0.403E-04]  d Energy =-0.7395825E-05 0.243E-04
 d Force =-0.3614742E+00[-0.362E+00,-0.361E+00]  d Ewald  =-0.6008918E+00 0.239E+00

 Conjugate gradient step on ions:
 trial-energy change:    0.000007  1 .order   -0.000021   -0.000051    0.000009
  (g-gl).g = 0.167E-03      g.g   = 0.120E-03  gl.gl    = 0.121E-03
 g(Force)  = 0.396E-04   g(Stress)= 0.804E-04 ortho     =-0.383E-06
 gamma     =   1.37846
 trial     =   0.42639
 opt step  =   0.36256  (harmonic =   0.36256) maximal distance =0.00055674
 next E    =  -157.033185   (d E  =  -0.00002)

 reached required accuracy - stopping structural energy minimisation