 vasp.5.4.4.18Apr17-6-g9f103f2a35 (build Jul 11 2019 11:52:51) complex

 executed on             LinuxIFC date 2023.11.29  16:42:10

 INCAR:
 POTCAR:    PAW_PBE V 08Apr2002
 POTCAR:    PAW_PBE Fe 06Sep2000
 POTCAR:    PAW_PBE V 08Apr2002
   VRHFIN =V: p6 d4 s1

   TITEL  = PAW_PBE V 08Apr2002
   POMASS =   50.941; ZVAL   =    5.000    mass and valenz
   ENMAX  =  192.543; ENMIN  =  144.408 eV

 POTCAR:    PAW_PBE Fe 06Sep2000
   VRHFIN =Fe:  d7 s1

   TITEL  = PAW_PBE Fe 06Sep2000
   POMASS =   55.847; ZVAL   =    8.000    mass and valenz
   ENMAX  =  267.882; ENMIN  =  200.911 eV

  PAW_PBE V 08Apr2002                   :
  PAW_PBE Fe 06Sep2000                  :

 POSCAR: EA0     6.363  9.740  4.252 90.03 89.99
  positions in direct lattice
 exchange correlation table for  LEXCH =        8
   RHO(1)=    0.500       N(1)  =     2000
   RHO(2)=  100.500       N(2)  =     4000

 ion  position               nearest neighbor table
   1  0.324  0.768  0.481-   8 2.52   6 2.53   2 2.54  20 2.58   4 2.59  20 2.59  10 2.62  10 2.62
                            17 2.91  17 2.92   9 2.93  13 2.94  13 2.94   5 3.03
   2  0.721  0.869  0.482-   6 2.51   4 2.52   9 2.53   1 2.54  15 2.57  17 2.58  15 2.58  17 2.59
                             7 2.96  20 2.97  20 2.97  13 2.98  13 2.99   8 3.05
   3  0.705  0.362  0.482-   8 2.48  18 2.51   7 2.53  16 2.53  16 2.54  12 2.60  12 2.62   5 2.64
                            19 2.92   9 2.93  19 2.93  14 3.01  14 3.02   4 3.02
   4  0.919  0.666  0.480-   2 2.52   5 2.57   1 2.59   8 2.61  12 2.61  12 2.61  13 2.61  13 2.62
                             6 2.96  10 2.97  10 2.97  17 2.98  17 2.98   3 3.02
   5  0.120  0.461  0.481-  18 2.48   8 2.50  14 2.54  14 2.55   4 2.57  10 2.60  10 2.61   3 2.64
                             7 2.90  19 2.92  19 2.93  12 3.00  12 3.01   1 3.03
   6  0.115  0.966  0.484-   2 2.51   7 2.51   1 2.53   9 2.53  13 2.56  13 2.57  11 2.63  11 2.63
                            18 2.93   4 2.96  20 2.96  20 2.96  15 2.98  15 2.98
   7  0.921  0.169  0.485-  18 2.50   6 2.51   3 2.53  14 2.60  15 2.61  15 2.61  14 2.61   9 2.61
                             5 2.90  11 2.96  11 2.96   2 2.96  16 3.00  16 3.01
   8  0.511  0.561  0.481-   3 2.48   5 2.50   1 2.52  19 2.53  19 2.54   4 2.61  17 2.65  17 2.65
                            10 2.92  10 2.93  12 2.95  12 2.95  18 2.96   2 3.05
   9  0.511  0.066  0.485-  18 2.47   2 2.53   6 2.53  20 2.57  20 2.58   7 2.61  16 2.63  16 2.63
                            11 2.92  11 2.92   3 2.93   1 2.93  15 2.95  15 2.95
  10  0.220  0.613  0.981-  19 2.44  13 2.53  17 2.55   5 2.60  12 2.61   5 2.61   1 2.62   1 2.62
                            14 2.90   8 2.92   8 2.93   4 2.97   4 2.97  20 3.00
  11  0.223  0.122  0.985-  16 2.49  14 2.50  20 2.52  18 2.53  18 2.54   6 2.63  15 2.63   6 2.63
                             9 2.92   9 2.92  19 2.96   7 2.96   7 2.96  13 2.98
  12  0.811  0.515  0.981-  19 2.50  14 2.52  17 2.55   3 2.60  10 2.61   4 2.61   4 2.61   3 2.62
                            16 2.89   8 2.95   8 2.95   5 3.00   5 3.01  13 3.03
  13  0.028  0.819  0.982-  20 2.49  10 2.53   6 2.56   6 2.57  15 2.57   4 2.61  17 2.62   4 2.62
                             1 2.94   1 2.94  11 2.98   2 2.98   2 2.99  12 3.03
  14  0.023  0.320  0.983-  11 2.50  12 2.52  19 2.53   5 2.54   5 2.55   7 2.60   7 2.61  16 2.61
                            10 2.90  18 2.94  18 2.94  15 3.01   3 3.01   3 3.02
  15  0.811  0.018  0.984-  20 2.52  16 2.55   2 2.57  13 2.57   2 2.58   7 2.61   7 2.61  11 2.63
                            17 2.92   9 2.95   9 2.95   6 2.98   6 2.98  14 3.01
  16  0.612  0.223  0.984-  19 2.47  11 2.49   3 2.53   3 2.54  15 2.55  14 2.61   9 2.63   9 2.63
                            12 2.89  18 2.92  18 2.93  20 3.00   7 3.00   7 3.01
  17  0.616  0.722  0.981-  20 2.48  10 2.55  12 2.55   2 2.58   2 2.59  13 2.62   8 2.65   8 2.65
                             1 2.91   1 2.92  15 2.92  19 2.97   4 2.98   4 2.98
  18  0.313  0.262  0.483-   9 2.47   5 2.48   7 2.50   3 2.51  11 2.53  11 2.54  19 2.64  19 2.65
                            16 2.92  16 2.93   6 2.93  14 2.94  14 2.94   8 2.96
  19  0.419  0.421  0.982-  10 2.44  16 2.47  12 2.50  14 2.53   8 2.53   8 2.54  18 2.64  18 2.65
                             5 2.92   3 2.92   5 2.93   3 2.93  11 2.96  17 2.97
  20  0.417  0.918  0.983-  17 2.48  13 2.49  15 2.52  11 2.52   9 2.57   1 2.58   9 2.58   1 2.59
                             6 2.96   6 2.96   2 2.97   2 2.97  10 3.00  16 3.00

  LATTYP: Found a triclinic cell.
 ALAT       =    15.1511727574
 B/A-ratio  =     0.4199831988
 C/A-ratio  =     0.2806080276
 COS(alpha) =     0.0001168988
 COS(beta)  =     0.2803364322
 COS(gamma) =     0.7224781326

  Lattice vectors:

 A1 = ( -10.9463910000,  -9.5738690000,  -4.2515400000)
 A2 = (  -6.3632380000,   0.0000000000,   0.0000000000)
 A3 = (  -0.0004970000,   0.0023950000,  -4.2515400000)

Analysis of symmetry for initial positions (statically):
 Subroutine PRICEL returns:
 Original cell was already a primitive cell.

 Routine SETGRP: Setting up the symmetry group for a
 triclinic supercell.

 Subroutine GETGRP returns: Found  1 space group operations
 (whereof  1 operations were pure point group operations)
 out of a pool of  2 trial point group operations.

The static configuration has the point symmetry C_1 .

Analysis of symmetry for dynamics (positions and initial velocities):
 Subroutine PRICEL returns:
 Original cell was already a primitive cell.

 Routine SETGRP: Setting up the symmetry group for a
 triclinic supercell.

 Subroutine GETGRP returns: Found  1 space group operations
 (whereof  1 operations were pure point group operations)
 out of a pool of  2 trial point group operations.

The dynamic configuration has the point symmetry C_1 .

 Subroutine INISYM returns: Found  1 space group operations
 (whereof  1 operations are pure point group operations),
 and found     1 'primitive' translations

 KPOINTS: EA

Automatic generation of k-mesh.
Space group operators:
 irot       det(A)        alpha          n_x          n_y          n_z        tau_x        tau_y        tau_z
    1     1.000000     0.000000     1.000000     0.000000     0.000000     0.000000     0.000000     0.000000

 Subroutine IBZKPT returns following result:

 Found      8 irreducible k-points:

 Following reciprocal coordinates:
            Coordinates               Weight
  0.000000  0.000000  0.000000      1.000000
  0.500000 -0.000000 -0.000000      1.000000
  0.000000  0.500000 -0.000000      1.000000
  0.500000  0.500000  0.000000      1.000000
  0.000000  0.000000  0.333333      2.000000
  0.500000 -0.000000  0.333333      2.000000
  0.000000  0.500000  0.333333      2.000000
  0.500000  0.500000  0.333333      2.000000

 Following cartesian coordinates:
            Coordinates               Weight
  0.000000  0.000000  0.000000      1.000000
  0.078576  0.014610 -0.000001      1.000000
  0.000000  0.052212  0.000029      1.000000
  0.078576  0.066823  0.000028      1.000000
  0.000000  0.000000  0.078403      2.000000
  0.078576  0.014610  0.078402      2.000000
  0.000000  0.052212  0.078432      2.000000
  0.078576  0.066823  0.078431      2.000000

 SYSTEM =  unknown system
 POSCAR =  EA0     6.363  9.740  4.252 90.03 89.99

 Startparameter for this run:
   NWRITE =      2    write-flag & timer
   PREC   = normal    normal or accurate (medium, high low for compatibility)
   ISTART =      0    job   : 0-new  1-cont  2-samecut
   ICHARG =      2    charge: 1-file 2-atom 10-const
   ISPIN  =      1    spin polarized calculation?
   LNONCOLLINEAR =      F non collinear calculations
   LSORBIT =      F    spin-orbit coupling
   INIWAV =      1    electr: 0-lowe 1-rand  2-diag
   LASPH  =      F    aspherical Exc in radial PAW
   METAGGA=      F    non-selfconsistent MetaGGA calc.

 Electronic Relaxation 1
   ENCUT  =  267.9 eV  19.69 Ry    4.44 a.u.   8.49 13.00  5.67*2*pi/ulx,y,z
   ENINI  =  267.9     initial cutoff
   ENAUG  =  511.4 eV  augmentation charge cutoff
   NELM   =     60;   NELMIN=  2; NELMDL= -5     # of ELM steps
   EDIFF  = 0.1E-04   stopping-criterion for ELM
   LREAL  =      F    real-space projection
   NLSPLINE    = F    spline interpolate recip. space projectors
   LCOMPAT=      F    compatible to vasp.4.4
   GGA_COMPAT  = T    GGA compatible to vasp.4.4-vasp.4.6
   LMAXPAW     = -100 max onsite density
   LMAXMIX     =    2 max onsite mixed and CHGCAR
   VOSKOWN=      0    Vosko Wilk Nusair interpolation
   ROPT   =    0.00000   0.00000
 Ionic relaxation
   EDIFFG = -.1E-01   stopping-criterion for IOM
   NSW    =    500    number of steps for IOM
   NBLOCK =      1;   KBLOCK =    500    inner block; outer block
   IBRION =      2    ionic relax: 0-MD 1-quasi-New 2-CG
   NFREE  =      1    steps in history (QN), initial steepest desc. (CG)
   ISIF   =      3    stress and relaxation
   IWAVPR =     11    prediction:  0-non 1-charg 2-wave 3-comb
   ISYM   =      2    0-nonsym 1-usesym 2-fastsym
   LCORR  =      T    Harris-Foulkes like correction to forces

   POTIM  = 0.5000    time-step for ionic-motion
   TEIN   =    0.0    initial temperature
   TEBEG  =    0.0;   TEEND  =   0.0 temperature during run
   SMASS  =  -3.00    Nose mass-parameter (am)
   estimated Nose-frequenzy (Omega)   =  0.10E-29 period in steps =****** mass=  -0.925E-27a.u.
   SCALEE = 1.0000    scale energy and forces
   NPACO  =    256;   APACO  = 16.0  distance and # of slots for P.C.
   PSTRESS=    0.0 pullay stress

  Mass of Ions in am
   POMASS =  50.94 55.85
  Ionic Valenz
   ZVAL   =   5.00  8.00
  Atomic Wigner-Seitz radii
  virtual crystal weights
   VCA    =   1.00  1.00
   NELECT =     109.0000    total number of electrons
   NUPDOWN=      -1.0000    fix difference up-down

 DOS related values:
   EMIN   =  10.00;   EMAX   =-10.00  energy-range for DOS
   EFERMI =   0.00
   ISMEAR =     0;   SIGMA  =   0.10  broadening in eV -4-tet -1-fermi 0-gaus

 Electronic relaxation 2 (details)
   IALGO  =     38    algorithm
   LDIAG  =      T    sub-space diagonalisation (order eigenvalues)
   LSUBROT=      F    optimize rotation matrix (better conditioning)
   TURBO    =      0    0=normal 1=particle mesh
   IRESTART =      0    0=no restart 2=restart with 2 vectors
   NREBOOT  =      0    no. of reboots
   NMIN     =      0    reboot dimension
   EREF     =   0.00    reference energy to select bands
   IMIX   =      4    mixing-type and parameters
     AMIX     =   0.40;   BMIX     =  1.00
     AMIX_MAG =   1.60;   BMIX_MAG =  1.00
     AMIN     =   0.10
     WC   =   100.;   INIMIX=   1;  MIXPRE=   1;  MAXMIX= -45

 Intra band minimization:
   WEIMIN = 0.0010     energy-eigenvalue tresh-hold
   EBREAK =  0.37E-07  absolut break condition
   DEPER  =   0.30     relativ break condition

   TIME   =   0.40     timestep for ELM

  volume/ion in A,a.u.               =      12.95        87.42
  Fermi-wavevector in a.u.,A,eV,Ry     =   1.226714  2.318154 20.474433  1.504828
  Thomas-Fermi vector in A             =   2.361705

 Write flags
   LWAVE        =      F    write WAVECAR
[...]
      3.04080      8.31828      2.05128         0.032406      0.005019      0.000413
      3.84243      3.46888      2.05128        -0.009282     -0.052545      0.000121
      4.65871      6.38139      2.04260        -0.013423      0.006667      0.005203
     -0.05594      4.41502      2.04600         0.007823      0.016538      0.003360
     -0.98784      9.24817      2.05726        -0.022065      0.005599     -0.003650
      5.55799      1.61333      2.06135         0.015379     -0.011078     -0.008318
      2.25413      5.37512      2.04343        -0.018587      0.014531      0.004748
      3.13680      0.63001      2.05996        -0.010664     -0.006394     -0.003167
      0.30790      5.87256      4.16901         0.035728     -0.030623      0.003673
      1.20068      1.16270      4.18663         0.004580      0.033734     -0.007077
      4.24367      4.92707      4.16928         0.020482     -0.012460      0.003596
     -1.28117      7.84254      4.17403         0.000832      0.020273      0.001374
     -0.42254      3.06319      4.18014        -0.020605      0.026765     -0.001215
      5.12850      0.16727      4.18551        -0.003460     -0.003298     -0.005209
      3.49884      2.13031      4.18485         0.007454      0.007740     -0.007102
      2.63632      6.90987      4.16967        -0.059407     -0.006946      0.005433
      1.52856      2.50311      2.05505         0.007989     -0.019862      0.000753
      1.91420      4.03144      4.17445         0.008364      0.020124      0.004750
      1.02078      8.78661      4.17954         0.007817     -0.014437     -0.001481
    total drift:                                0.003834      0.001841     -0.005491

  FREE ENERGIE OF THE ION-ELECTRON SYSTEM (eV)
  free  energy   TOTEN  =      -178.55449955 eV

  energy  without entropy=     -178.44218592  energy(sigma->0) =     -178.49834274

[...]

 d Force =-0.3012439E-04[-0.862E-03, 0.801E-03]  d Energy =-0.1002618E+00 0.100E+00
 d Force =-0.1261537E+00[-0.131E+00,-0.122E+00]  d Ewald  = 0.1163469E+03-0.116E+03

 Steepest descent step on ions:
 trial-energy change:    0.100262  1 .order    0.120285   -0.595336    0.835905
  (g-gl).g = 0.595E+00      g.g   = 0.595E+00  gl.gl    = 0.000E+00
 g(Force)  = 0.817E-03   g(Stress)= 0.595E+00 ortho     = 0.000E+00
 gamma     =   0.00000
 trial     =   1.00000
 opt step  =   0.43661  (harmonic =   0.41596) maximal distance =0.00075253
 next E    =  -178.686129   (d E  =  -0.13163)

[...]

 d Force = 0.2100398E-03[-0.803E-04, 0.500E-03]  d Energy = 0.2319602E+00-0.232E+00
 d Force = 0.7488810E-01[ 0.733E-01, 0.764E-01]  d Ewald  =-0.6617251E+02 0.662E+02

[...]

 d Force = 0.1446965E-03[ 0.289E-04, 0.260E-03]  d Energy = 0.7544584E-02-0.740E-02
 d Force =-0.8856117E-01[-0.894E-01,-0.877E-01]  d Ewald  =-0.6142763E+00 0.526E+00

 Conjugate gradient step on ions:
 trial-energy change:   -0.007545  1 .order   -0.007590   -0.010170   -0.005010
  (g-gl).g = 0.112E-01      g.g   = 0.115E-01  gl.gl    = 0.595E+00
 g(Force)  = 0.290E-03   g(Stress)= 0.112E-01 ortho     = 0.241E-03
 gamma     =   0.01884
 trial     =   0.88732
 opt step  =   1.85551  (harmonic =   1.74893) maximal distance =0.00210578
 next E    =  -178.696417   (d E  =  -0.01022)

[...]

 d Force =-0.9698293E-04[-0.226E-03, 0.316E-04]  d Energy = 0.2443124E-02-0.254E-02
 d Force =-0.9846747E-01[-0.994E-01,-0.975E-01]  d Ewald  =-0.6657585E+00 0.567E+00

[...]

 d Force = 0.1552366E-04[ 0.146E-04, 0.164E-04]  d Energy = 0.1759402E-04-0.207E-05
 d Force = 0.7277151E-02[ 0.727E-02, 0.728E-02]  d Ewald  = 0.4834977E-01-0.411E-01

[...]

 Conjugate gradient step on ions:
 trial-energy change:   -0.001586  1 .order   -0.001594   -0.002044   -0.001143
  (g-gl).g = 0.199E-02      g.g   = 0.193E-02  gl.gl    = 0.115E-01
 g(Force)  = 0.315E-03   g(Stress)= 0.162E-02 ortho     =-0.864E-04
 gamma     =   0.17395
 trial     =   1.06685
 opt step  =   2.42090  (harmonic =   2.42090) maximal distance =0.00423178
 next E    =  -178.698523   (d E  =  -0.00232)

[...]

 d Force = 0.4804196E-04[-0.801E-04, 0.176E-03]  d Energy = 0.6632019E-03-0.615E-03
 d Force = 0.1917720E+00[ 0.190E+00, 0.194E+00]  d Ewald  = 0.1253693E-02 0.191E+00

[...]

 Conjugate gradient step on ions:
 trial-energy change:   -0.000271  1 .order   -0.000264   -0.000407   -0.000121
  (g-gl).g = 0.419E-03      g.g   = 0.309E-03  gl.gl    = 0.193E-02
 g(Force)  = 0.207E-03   g(Stress)= 0.102E-03 ortho     =-0.197E-04
 gamma     =   0.21686
 trial     =   1.33766
 opt step  =   1.90287  (harmonic =   1.90287) maximal distance =0.00217096
 next E    =  -178.698743   (d E  =  -0.00029)

[...]

 d Force = 0.3042499E-04[ 0.164E-04, 0.445E-04]  d Energy = 0.3051908E-04-0.941E-07
 d Force = 0.6110257E-01[ 0.609E-01, 0.613E-01]  d Ewald  = 0.3782107E+00-0.317E+00

[...]

 d Force = 0.4873949E-04[ 0.227E-04, 0.748E-04]  d Energy = 0.1283724E-05 0.475E-04
 d Force = 0.8326276E-01[ 0.828E-01, 0.837E-01]  d Ewald  =-0.1717737E+01 0.180E+01

 Conjugate gradient step on ions:
 trial-energy change:   -0.000001  1 .order   -0.000016   -0.000222    0.000190
  (g-gl).g = 0.124E-03      g.g   = 0.145E-03  gl.gl    = 0.309E-03
 g(Force)  = 0.399E-04   g(Stress)= 0.105E-03 ortho     = 0.186E-04
 gamma     =   0.40028
 trial     =   1.45070
 opt step  =   0.78204  (harmonic =   0.78204) maximal distance =0.00050098
 next E    =  -178.698814   (d E  =  -0.00006)

[...]

 eigenvalue-minimisations  :  1816
 total energy-change (2. order) :-0.4291073E-04  (-0.1336297E-03)
 number of electron     109.0000007 magnetization
 augmentation part       43.1146146 magnetization

[...]

 Broyden mixing:
  rms(total) = 0.24022E-02    rms(broyden)= 0.24004E-02
  rms(prec ) = 0.40259E-02
  weight for this iteration     100.00

 eigenvalues of (default mixing * dielectric matrix)
  average eigenvalue GAMMA=   0.5526
  1.4556  0.8687  0.1190  0.1304  0.1895

[...]

--------------------------------------- Iteration     12(   7)  ---------------------------------------

 eigenvalue-minimisations  :   880
 total energy-change (2. order) : 0.3646055E-06  (-0.3348146E-05)
 number of electron     109.0000007 magnetization
 augmentation part       43.1177143 magnetization

 Free energy of the ion-electron system (eV)
  alpha Z        PSCENC =       567.93533816
  Ewald energy   TEWEN  =     -5344.54440506
  -Hartree energ DENC   =      -632.34988653
  -exchange      EXHF   =         0.00000000
  -V(xc)+E(xc)   XCENC  =      -767.99099355
  PAW double counting   =      7770.63057960    -6968.59512484
  entropy T*S    EENTRO =        -0.10651913
  eigenvalues    EBANDS =       508.83797724
  atomic energy  EATOM  =      4687.48422623
  Solvation  Ediel_sol  =         0.00000000
  free energy    TOTEN  =      -178.69880788 eV

  energy without entropy =     -178.59228875  energy(sigma->0) =     -178.64554832

 average (electrostatic) potential at core
  the test charge radii are     1.2064  1.0103
  (the norm of the test charge is              1.0000)
       1 -38.9581       2 -38.6644       3 -38.8211       4 -38.7921       5 -38.8510
       6 -38.7246       7 -38.8478       8 -38.9431       9 -39.1031      10 -38.9052
      11 -39.0634      12 -38.8618      13 -38.8263      14 -38.8083      15 -38.8636
      16 -38.8478      17 -38.9090      18 -42.7746      19 -42.7607      20 -42.7615

 E-fermi :   6.5434     XC(G=0): -12.7934     alpha+bet :-15.6761

[...]

 k-point     8 :       0.5000    0.5000    0.3333
  band No.  band energies     occupation
      1       1.5567      2.00000
      2       1.7982      2.00000
      3       2.2063      2.00000
      4       2.2587      2.00000
      5       2.8777      2.00000
      6       2.9825      2.00000
      7       3.2637      2.00000
      8       3.4189      2.00000
      9       3.4764      2.00000
     10       3.5628      2.00000
     11       3.6163      2.00000
     12       3.6327      2.00000
     13       3.7874      2.00000
     14       3.8094      2.00000
     15       3.8382      2.00000
     16       3.8687      2.00000
     17       3.8701      2.00000
     18       3.9382      2.00000
     19       3.9907      2.00000
     20       4.0385      2.00000
     21       4.0765      2.00000
     22       4.1162      2.00000
     23       4.7145      2.00000
     24       4.7600      2.00000
     25       4.8253      2.00000
     26       4.9272      2.00000
     27       4.9832      2.00000
     28       5.0455      2.00000
     29       5.1126      2.00000
     30       5.1482      2.00000
     31       5.2093      2.00000
     32       5.2878      2.00000
     33       5.3388      2.00000
     34       5.3937      2.00000
     35       5.4593      2.00000
     36       5.4827      2.00000
     37       5.5142      2.00000
     38       5.5598      2.00000
     39       5.6037      2.00000
     40       5.6284      2.00000
     41       5.7113      2.00000
     42       5.8359      2.00000
     43       5.8982      2.00000
     44       5.9306      2.00000
     45       5.9933      2.00000
     46       6.0459      2.00000
     47       6.0605      2.00000
     48       6.1254      2.00000
     49       6.1881      2.00000
     50       6.2332      1.99999
     51       6.3148      1.99877
     52       6.3776      1.98097
     53       6.4077      1.94499
     54       6.4891      1.55739
     55       6.5501      0.92385
     56       6.6569      0.10825
     57       6.7178      0.01361
     58       6.7392      0.00562
     59       6.8397      0.00003
     60       6.9844      0.00000
     61       7.0275      0.00000
     62       7.0929      0.00000
     63       7.3076      0.00000
     64       7.4448      0.00000
     65       7.4736      0.00000
     66       7.5197      0.00000
     67       7.6198      0.00000
     68       7.6730      0.00000

 soft charge-density along one line, spin component           1
         0         1         2         3         4         5         6         7         8         9
 total charge-density along one line

------------------------ aborting loop because EDIFF is reached ----------------------------------------

  FORCE on cell =-STRESS in cart. coord.  units (eV):
  Direction    XX          YY          ZZ          XY          YZ          ZX
  Alpha Z   567.93534   567.93534   567.93534
  Ewald   -1819.20949 -1791.86527 -1733.48368   -17.52333     1.29666     0.29403
  Hartree   157.26261   201.23843   273.75794   -11.59830     0.37515     0.08502
  E(xc)    -498.93219  -498.17787  -497.45650     0.07300    -0.04568    -0.02084
  Local     385.84936   315.98872   182.36222    28.49984    -1.58646    -0.36994
  n-local   -88.87122   -92.05169   -90.43429    -0.28383    -0.02329    -0.05923
  augment   449.02457   448.82467   448.26581     0.14929     0.03379     0.03955
  Kinetic   846.87908   848.02847   849.00332     0.69818    -0.05060     0.02934
  Fock        0.00000     0.00000     0.00000     0.00000     0.00000     0.00000
  Total      -0.06195    -0.07921    -0.04984     0.01485    -0.00044    -0.00208
  in kB      -0.39385    -0.50359    -0.31686     0.09442    -0.00279    -0.01322

 VOLUME and BASIS-vectors are now :
  energy-cutoff  :      267.88
  volume of cell :      252.01
      direct lattice vectors                 reciprocal lattice vectors
     6.307094588 -0.040978014  0.000114840     0.158748095  0.030241882  0.000004499
    -1.827031910  9.590601990 -0.002977441     0.000678286  0.104397985  0.000092429
     0.000586058 -0.003696964  4.171377522    -0.000003886  0.000073684  0.239729027

  length of vectors
     6.307227707  9.763078459  4.171379201     0.161602999  0.104400230  0.239729038

 FORCES acting on ions
    electron-ion (+dipol)            ewald-force                    non-local-force                 convergence-correction
   0.125E+02 0.260E+02 -.213E+00   -.127E+02 -.261E+02 0.218E+00   0.192E+00 0.119E+00 -.278E-02   0.157E-01 -.163E-01 -.303E-03
   -.242E+02 0.152E+02 -.473E-02   0.250E+02 -.153E+02 0.120E-01   -.821E+00 0.149E+00 -.743E-02   -.231E-02 -.361E-01 0.798E-04
   -.564E+02 -.203E+02 0.116E-01   0.573E+02 0.200E+02 -.116E-02   -.898E+00 0.278E+00 -.101E-01   -.917E-02 0.307E-01 -.364E-04
   0.592E+00 -.651E+01 -.961E-01   -.499E+00 0.659E+01 0.125E+00   -.804E-01 -.824E-01 -.259E-01   -.110E-01 -.889E-03 -.435E-03
   0.522E+02 -.436E+02 -.169E+00   -.532E+02 0.436E+02 0.202E+00   0.997E+00 0.263E-01 -.312E-01   0.146E-01 0.138E-01 -.281E-03
   0.302E+02 0.289E+02 0.128E+00   -.310E+02 -.291E+02 -.149E+00   0.864E+00 0.189E+00 0.186E-01   -.379E-02 -.201E-01 0.271E-03
   0.300E+02 0.216E+02 0.823E-01   -.303E+02 -.216E+02 -.113E+00   0.275E+00 0.991E-02 0.283E-01   0.158E-01 0.122E-01 0.416E-03
   -.214E+02 -.616E+02 -.395E+00   0.217E+02 0.622E+02 0.402E+00   -.303E+00 -.680E+00 -.469E-02   -.758E-02 0.816E-02 -.365E-03
   -.355E+02 0.141E+02 0.133E+00   0.360E+02 -.139E+02 -.146E+00   -.423E+00 -.178E+00 0.107E-01   -.959E-02 -.199E-01 0.450E-03
   0.353E+02 -.284E+02 -.642E-02   -.358E+02 0.280E+02 0.229E-01   0.391E+00 0.459E+00 -.136E-01   0.178E-01 -.200E-02 -.462E-03
   0.360E+02 0.417E+02 0.358E+00   -.365E+02 -.424E+02 -.373E+00   0.495E+00 0.650E+00 0.122E-01   -.568E-03 0.146E-02 0.577E-03
   -.337E+02 -.364E+02 -.824E-01   0.338E+02 0.363E+02 0.101E+00   -.151E+00 0.783E-01 -.160E-01   -.103E-01 0.102E-01 -.458E-03
   0.316E+02 0.232E+02 -.313E-01   -.320E+02 -.232E+02 0.444E-01   0.417E+00 0.256E-01 -.117E-01   -.129E-02 -.122E-01 -.267E-03
   0.520E+02 0.129E+01 0.439E-02   -.529E+02 -.106E+01 -.211E-01   0.812E+00 -.253E+00 0.159E-01   0.150E-01 0.295E-01 0.181E-03
   -.237E+02 0.645E+01 0.886E-01   0.241E+02 -.640E+01 -.113E+00   -.332E+00 -.165E-01 0.218E-01   0.497E-02 -.320E-01 0.456E-03
   -.545E+02 0.192E+02 0.176E+00   0.556E+02 -.189E+02 -.210E+00   -.110E+01 -.343E+00 0.322E-01   -.924E-02 0.255E-01 0.396E-03
   -.320E+02 0.185E+01 -.326E-01   0.323E+02 -.138E+01 0.525E-01   -.303E+00 -.458E+00 -.171E-01   -.894E-02 -.970E-02 -.454E-03
   0.187E+02 0.314E+02 0.120E+00   -.187E+02 -.317E+02 -.961E-01   0.826E-01 0.208E+00 -.253E-01   -.533E-02 0.497E-01 0.921E-03
   -.121E+02 -.620E+02 -.158E+00   0.122E+02 0.621E+02 0.123E+00   -.750E-01 -.136E+00 0.360E-01   -.127E-01 0.448E-01 -.418E-03
   -.563E+01 0.281E+02 0.693E-01   0.566E+01 -.279E+02 -.796E-01   -.231E-01 -.853E-01 0.899E-02   -.172E-02 -.600E-01 0.500E-03
   -.662E-02 0.237E-01 -.178E-01   0.888E-14 0.711E-13 0.119E-13   0.163E-01 -.398E-01 0.189E-01   -.959E-02 0.171E-01 0.769E-03

 POSITION                                       TOTAL-FORCE (eV/Angst)
      0.63755      7.35198      2.00631         0.006230      0.002266      0.001652
      2.96019      8.30057      2.01012        -0.000616     -0.003084     -0.000138
      3.78751      3.44455      2.01174         0.000508      0.004672      0.000227
      4.57720      6.35254      2.00401         0.001974      0.002407      0.002420
     -0.08438      4.41625      2.00721         0.000172     -0.001603      0.001413
     -1.03952      9.25607      2.01421         0.003072     -0.001769     -0.001761
      5.49813      1.57757      2.01981        -0.003049     -0.003846     -0.002289
      2.19971      5.36126      2.00484         0.003441     -0.001471      0.001940
      3.10485      0.60975      2.01903        -0.005188      0.004223     -0.002270
      0.26633      5.87136      4.09020         0.000897     -0.005029      0.002336
      1.18213      1.15402      4.10531        -0.003211     -0.003647     -0.002650
      4.17363      4.90133      4.09074         0.007574      0.000168      0.002149
     -1.32011      7.85159      4.09344         0.000182     -0.000699      0.001039
     -0.43919      3.06455      4.09990        -0.006555      0.002597     -0.000675
      5.08165      0.13345      4.10458        -0.003127     -0.001926     -0.002138
      3.45470      2.10717      4.10378        -0.000437      0.005483     -0.002047
      2.57023      6.89336      4.09062        -0.000989      0.004052      0.002162
      1.49825      2.49473      2.01526        -0.002373     -0.002120     -0.000901
      1.87145      4.01948      4.09576         0.001437     -0.001427      0.000419
      0.95475      8.78076      4.09771         0.000057      0.000754     -0.000888
    total drift:                                0.000070      0.000963      0.001848

  FREE ENERGIE OF THE ION-ELECTRON SYSTEM (eV)
  free  energy   TOTEN  =      -178.69880788 eV

  energy  without entropy=     -178.59228875  energy(sigma->0) =     -178.64554832

 d Force =-0.1503771E-04[-0.196E-04,-0.105E-04]  d Energy = 0.5216058E-04-0.672E-04
 d Force =-0.3825514E-01[-0.383E-01,-0.382E-01]  d Ewald  = 0.7917208E+00-0.830E+00

 reached required accuracy - stopping structural energy minimisation