 vasp.5.4.4.18Apr17-6-g9f103f2a35 (build Jul 11 2019 11:52:51) complex

 executed on             LinuxIFC date 2023.11.29  16:56:30

 INCAR:
 POTCAR:    PAW_PBE V 08Apr2002
 POTCAR:    PAW_PBE Fe 06Sep2000
 POTCAR:    PAW_PBE V 08Apr2002
   VRHFIN =V: p6 d4 s1

   TITEL  = PAW_PBE V 08Apr2002
   POMASS =   50.941; ZVAL   =    5.000    mass and valenz
   ENMAX  =  192.543; ENMIN  =  144.408 eV

 POTCAR:    PAW_PBE Fe 06Sep2000
   VRHFIN =Fe:  d7 s1

   TITEL  = PAW_PBE Fe 06Sep2000
   POMASS =   55.847; ZVAL   =    8.000    mass and valenz
   ENMAX  =  267.882; ENMIN  =  200.911 eV

  PAW_PBE V 08Apr2002                   :
  PAW_PBE Fe 06Sep2000                  :

 POSCAR: EA0     8.296  8.296  4.347 90.00 90.00
  positions in direct lattice
 exchange correlation table for  LEXCH =        8
   RHO(1)=    0.500       N(1)  =     2000
   RHO(2)=  100.500       N(2)  =     4000

 ion  position               nearest neighbor table
   1  0.986  0.437  0.219-   4 2.12  14 2.15   8 2.23  18 2.24   4 2.61  13 2.64  11 2.81  15 2.89
                             7 2.92  19 2.93
   2  0.563  0.549  0.219-   5 2.12  15 2.15   9 2.23  19 2.24   5 2.61  13 2.64  12 2.81  16 2.89
                             8 2.92  20 2.93
   3  0.451  0.014  0.219-   6 2.12  16 2.15   7 2.23  20 2.24   6 2.61  13 2.64  10 2.81  14 2.89
                             9 2.92  18 2.93
   4  0.986  0.549  0.781-   1 2.12  15 2.15   7 2.23  19 2.24   1 2.61  13 2.64  10 2.81  14 2.89
                             8 2.92  18 2.93
   5  0.451  0.437  0.781-   2 2.12  16 2.15   8 2.23  20 2.24   2 2.61  13 2.64  11 2.81  15 2.89
                             9 2.92  19 2.93
   6  0.563  0.014  0.781-   3 2.12  14 2.15   9 2.23  18 2.24   3 2.61  13 2.64  12 2.81  16 2.89
                             7 2.92  20 2.93
   7  0.179  0.821  0.000-   4 2.23   3 2.23  10 2.42  10 2.42  16 2.51  15 2.51  17 2.57   1 2.92
                             6 2.92
   8  0.179  0.358  0.000-   1 2.23   5 2.23  11 2.42  11 2.42  16 2.51  14 2.51  17 2.57   4 2.92
                             2 2.92
   9  0.642  0.821  0.000-   6 2.23   2 2.23  12 2.42  12 2.42  15 2.51  14 2.51  17 2.57   3 2.92
                             5 2.92
  10  0.105  0.895  0.500-  20 2.24  19 2.24   7 2.42   7 2.42  11 2.60  12 2.60  17 2.64  17 2.64
                             4 2.81   3 2.81  16 3.05  16 3.05  15 3.05  15 3.05
  11  0.105  0.209  0.500-  18 2.24  20 2.24   8 2.42   8 2.42  10 2.60  12 2.60  17 2.64  17 2.64
                             1 2.81   5 2.81  16 3.05  16 3.05  14 3.05  14 3.05
  12  0.791  0.895  0.500-  18 2.24  19 2.24   9 2.42   9 2.42  10 2.60  11 2.60  17 2.64  17 2.64
                             6 2.81   2 2.81  15 3.05  15 3.05  14 3.05  14 3.05
  13  0.667  0.333  0.500-  18 2.21  19 2.21  20 2.21   6 2.64   1 2.64   3 2.64   4 2.64   2 2.64
                             5 2.64
  14  0.829  0.171  0.000-   1 2.15   6 2.15  18 2.18  18 2.18  17 2.45   9 2.51   8 2.51   4 2.89
                             3 2.89  12 3.05  12 3.05  11 3.05  11 3.05
  15  0.829  0.659  0.000-   4 2.15   2 2.15  19 2.18  19 2.18  17 2.45   9 2.51   7 2.51   1 2.89
                             5 2.89  12 3.05  12 3.05  10 3.05  10 3.05
  16  0.341  0.171  0.000-   3 2.15   5 2.15  20 2.18  20 2.18  17 2.45   8 2.51   7 2.51   6 2.89
                             2 2.89  11 3.05  11 3.05  10 3.05  10 3.05
  17  0.000  0.000  0.000-  14 2.45  15 2.45  16 2.45   7 2.57   8 2.57   9 2.57  10 2.64  10 2.64
                            11 2.64  11 2.64  12 2.64  12 2.64
  18  0.821  0.179  0.500-  14 2.18  14 2.18  13 2.21   1 2.24   6 2.24  12 2.24  11 2.24   4 2.93
                             3 2.93
  19  0.821  0.641  0.500-  15 2.18  15 2.18  13 2.21   4 2.24   2 2.24  10 2.24  12 2.24   1 2.93
                             5 2.93
  20  0.359  0.179  0.500-  16 2.18  16 2.18  13 2.21   3 2.24   5 2.24  10 2.24  11 2.24   6 2.93
                             2 2.93

  LATTYP: Found a hexagonal cell.
 ALAT       =     8.2956530430
 C/A-ratio  =     0.5240082942

  Lattice vectors:

 A1 = (   8.2956530000,   0.0000000000,   0.0000000000)
 A2 = (  -4.1478260000,   7.1842460000,   0.0000000000)
 A3 = (   0.0000000000,   0.0000000000,   4.3469910000)

Analysis of symmetry for initial positions (statically):
 Subroutine PRICEL returns:
 Original cell was already a primitive cell.

 Routine SETGRP: Setting up the symmetry group for a
 hexagonal supercell.

 Subroutine GETGRP returns: Found  6 space group operations
 (whereof  6 operations were pure point group operations)
 out of a pool of 24 trial point group operations.

The static configuration has the point symmetry D_3 .

Analysis of symmetry for dynamics (positions and initial velocities):
 Subroutine PRICEL returns:
 Original cell was already a primitive cell.

 Routine SETGRP: Setting up the symmetry group for a
 hexagonal supercell.

 Subroutine GETGRP returns: Found  6 space group operations
 (whereof  6 operations were pure point group operations)
 out of a pool of 24 trial point group operations.

The dynamic configuration has the point symmetry D_3 .

 Subroutine INISYM returns: Found  6 space group operations
 (whereof  6 operations are pure point group operations),
 and found     1 'primitive' translations

 KPOINTS: EA

Automatic generation of k-mesh.
Space group operators:
 irot       det(A)        alpha          n_x          n_y          n_z        tau_x        tau_y        tau_z
    1     1.000000     0.000000     1.000000     0.000000     0.000000     0.000000     0.000000     0.000000
    2     1.000000   120.000000     0.000000     0.000000    -1.000000     0.000000     0.000000     0.000000
    3     1.000000   120.000000     0.000000     0.000000     1.000000     0.000000     0.000000     0.000000
    4     1.000000   180.000000     0.866025    -0.500000     0.000000     0.000000     0.000000     0.000000
    5     1.000000   180.000000     0.000000     1.000000     0.000000     0.000000     0.000000     0.000000
    6     1.000000   180.000000     0.866025     0.500000     0.000000     0.000000     0.000000     0.000000

 Subroutine IBZKPT returns following result:

 Found      4 irreducible k-points:

 Following reciprocal coordinates:
            Coordinates               Weight
  0.000000  0.000000  0.000000      1.000000
  0.500000 -0.000000  0.000000      3.000000
  0.000000  0.000000  0.333333      2.000000
  0.500000 -0.000000  0.333333      6.000000

 Following cartesian coordinates:
            Coordinates               Weight
  0.000000  0.000000  0.000000      1.000000
  0.060273  0.034798  0.000000      3.000000
  0.000000  0.000000  0.076681      2.000000
  0.060273  0.034798  0.076681      6.000000

 SYSTEM =  unknown system
 POSCAR =  EA0     8.296  8.296  4.347 90.00 90.00

 Startparameter for this run:
   NWRITE =      2    write-flag & timer
   PREC   = normal    normal or accurate (medium, high low for compatibility)
   ISTART =      0    job   : 0-new  1-cont  2-samecut
   ICHARG =      2    charge: 1-file 2-atom 10-const
   ISPIN  =      1    spin polarized calculation?
   LNONCOLLINEAR =      F non collinear calculations
   LSORBIT =      F    spin-orbit coupling
   INIWAV =      1    electr: 0-lowe 1-rand  2-diag
   LASPH  =      F    aspherical Exc in radial PAW
   METAGGA=      F    non-selfconsistent MetaGGA calc.

 Electronic Relaxation 1
   ENCUT  =  267.9 eV  19.69 Ry    4.44 a.u.  11.07 11.07  5.80*2*pi/ulx,y,z
   ENINI  =  267.9     initial cutoff
   ENAUG  =  511.4 eV  augmentation charge cutoff
   NELM   =     60;   NELMIN=  2; NELMDL= -5     # of ELM steps
   EDIFF  = 0.1E-04   stopping-criterion for ELM
   LREAL  =      F    real-space projection
   NLSPLINE    = F    spline interpolate recip. space projectors
   LCOMPAT=      F    compatible to vasp.4.4
   GGA_COMPAT  = T    GGA compatible to vasp.4.4-vasp.4.6
   LMAXPAW     = -100 max onsite density
   LMAXMIX     =    2 max onsite mixed and CHGCAR
   VOSKOWN=      0    Vosko Wilk Nusair interpolation
   ROPT   =    0.00000   0.00000
 Ionic relaxation
   EDIFFG = -.1E-01   stopping-criterion for IOM
   NSW    =    500    number of steps for IOM
   NBLOCK =      1;   KBLOCK =    500    inner block; outer block
   IBRION =      2    ionic relax: 0-MD 1-quasi-New 2-CG
   NFREE  =      1    steps in history (QN), initial steepest desc. (CG)
   ISIF   =      3    stress and relaxation
   IWAVPR =     11    prediction:  0-non 1-charg 2-wave 3-comb
   ISYM   =      2    0-nonsym 1-usesym 2-fastsym
   LCORR  =      T    Harris-Foulkes like correction to forces

   POTIM  = 0.5000    time-step for ionic-motion
   TEIN   =    0.0    initial temperature
   TEBEG  =    0.0;   TEEND  =   0.0 temperature during run
   SMASS  =  -3.00    Nose mass-parameter (am)
   estimated Nose-frequenzy (Omega)   =  0.10E-29 period in steps =****** mass=  -0.157E-26a.u.
   SCALEE = 1.0000    scale energy and forces
   NPACO  =    256;   APACO  = 16.0  distance and # of slots for P.C.
   PSTRESS=    0.0 pullay stress

  Mass of Ions in am
   POMASS =  50.94 55.85
  Ionic Valenz
   ZVAL   =   5.00  8.00
  Atomic Wigner-Seitz radii
  virtual crystal weights
   VCA    =   1.00  1.00
   NELECT =     109.0000    total number of electrons
   NUPDOWN=      -1.0000    fix difference up-down

 DOS related values:
   EMIN   =  10.00;   EMAX   =-10.00  energy-range for DOS
   EFERMI =   0.00
   ISMEAR =     0;   SIGMA  =   0.10  broadening in eV -4-tet -1-fermi 0-gaus

 Electronic relaxation 2 (details)
   IALGO  =     38    algorithm
   LDIAG  =      T    sub-space diagonalisation (order eigenvalues)
   LSUBROT=      F    optimize rotation matrix (better conditioning)
   TURBO    =      0    0=normal 1=particle mesh
   IRESTART =      0    0=no restart 2=restart with 2 vectors
   NREBOOT  =      0    no. of reboots
   NMIN     =      0    reboot dimension
   EREF     =   0.00    reference energy to select bands
   IMIX   =      4    mixing-type and parameters
     AMIX     =   0.40;   BMIX     =  1.00
     AMIX_MAG =   1.60;   BMIX_MAG =  1.00
     AMIN     =   0.10
     WC   =   100.;   INIMIX=   1;  MIXPRE=   1;  MAXMIX= -45

 Intra band minimization:
   WEIMIN = 0.0010     energy-eigenvalue tresh-hold
   EBREAK =  0.37E-07  absolut break condition
   DEPER  =   0.30     relativ break condition

   TIME   =   0.40     timestep for ELM

  volume/ion in A,a.u.               =      12.95        87.42
  Fermi-wavevector in a.u.,A,eV,Ry     =   1.226714  2.318154 20.474434  1.504828
  Thomas-Fermi vector in A             =   2.361705

 Write flags
   LWAVE        =      F    write WAVECAR
   LDOWNSAMPLE  =      F    k-point downsampling of WAVECAR
   LCHARG       =      F    write CHGCAR
   LVTOT        =      F    write LOCPOT, total local potential
   LVHAR        =      F    write LOCPOT, Hartree potential only
   LELF         =      F    write electronic localiz. function (ELF)
   LORBIT       =      0    0 simple, 1 ext, 2 COOP (PROOUT), +10 PAW based schemes

 Dipole corrections
   LMONO  =      F    monopole corrections only (constant potential shift)
   LDIPOL =      F    correct potential (dipole corrections)
[...]
 g(Force)  = 0.779E+00   g(Stress)= 0.109E+00 ortho     = 0.303E-01
 gamma     =   0.55165
 trial     =   1.34491
 opt step  =   1.57623  (harmonic =   1.61577) maximal distance =0.15224430
 next E    =  -167.371303   (d E  =  -0.75270)

[...]

 d Force =-0.5589377E-01[-0.473E+00, 0.361E+00]  d Energy =-0.1291413E+00 0.732E-01
 d Force = 0.3281945E+02[ 0.259E+02, 0.397E+02]  d Ewald  = 0.1313626E+03-0.985E+02

[...]

 d Force = 0.1163684E+00[-0.352E-01, 0.268E+00]  d Energy = 0.3079819E+00-0.192E+00
 d Force =-0.1696042E+02[-0.192E+02,-0.147E+02]  d Ewald  =-0.7133553E+02 0.544E+02

[...]

 d Force = 0.6960375E-01[ 0.353E-01, 0.104E+00]  d Energy = 0.7153095E-01-0.193E-02
 d Force = 0.7764629E+01[ 0.701E+01, 0.852E+01]  d Ewald  =-0.6296281E+00 0.839E+01

[...]

 d Force = 0.2243478E-01[ 0.860E-02, 0.363E-01]  d Energy = 0.2061340E-01 0.182E-02
 d Force =-0.1496889E+01[-0.167E+01,-0.132E+01]  d Ewald  = 0.1419519E+02-0.157E+02

[...]

 d Force =-0.1489213E-02[-0.177E-02,-0.121E-02]  d Energy = 0.5743184E-03-0.206E-02
 d Force = 0.2310918E+00[ 0.228E+00, 0.235E+00]  d Ewald  =-0.1971544E+01 0.220E+01

[...]

 d Force = 0.2945131E-03[-0.436E-03, 0.103E-02]  d Energy = 0.1109002E-02-0.814E-03
 d Force = 0.1030535E+01[ 0.102E+01, 0.104E+01]  d Ewald  = 0.3535188E+01-0.250E+01

[...]

 d Force = 0.6149880E-02[ 0.499E-02, 0.731E-02]  d Energy = 0.6333351E-02-0.183E-03
 d Force =-0.2762408E+01[-0.280E+01,-0.273E+01]  d Ewald  =-0.2286307E+01-0.476E+00

[...]

 d Force = 0.6939156E-02[-0.258E-02, 0.165E-01]  d Energy =-0.9719730E-03 0.791E-02
 d Force =-0.3764622E+01[-0.385E+01,-0.368E+01]  d Ewald  =-0.4166533E+01 0.402E+00

[...]

 d Force =-0.1447945E-02[-0.431E-02, 0.141E-02]  d Energy = 0.3093394E-02-0.454E-02
 d Force = 0.2046061E+01[ 0.202E+01, 0.207E+01]  d Ewald  = 0.2269548E+01-0.223E+00

[...]

 d Force = 0.1705228E-02[ 0.854E-03, 0.256E-02]  d Energy = 0.8707566E-03 0.834E-03
 d Force =-0.1015177E+01[-0.102E+01,-0.101E+01]  d Ewald  =-0.1668165E+01 0.653E+00

[...]

 d Force =-0.5819439E-02[-0.602E-02,-0.562E-02]  d Energy = 0.1297085E-02-0.712E-02
 d Force =-0.7920430E+00[-0.798E+00,-0.786E+00]  d Ewald  = 0.2946429E+01-0.374E+01

[...]

 d Force =-0.5451826E-03[-0.855E-02, 0.746E-02]  d Energy = 0.1097137E-01-0.115E-01
 d Force =-0.3443331E+01[-0.392E+01,-0.297E+01]  d Ewald  =-0.1271473E+02 0.927E+01

[...]

 Conjugate gradient step on ions:
 trial-energy change:   -0.112167  1 .order   -0.112141   -0.125452   -0.098830
  (g-gl).g =-0.764E-03      g.g   = 0.526E+00  gl.gl    = 0.646E+00
 g(Force)  = 0.417E+00   g(Stress)= 0.109E+00 ortho     = 0.145E-01
 gamma     =  -0.00118
 trial     =   0.23869
 opt step  =   0.95476  (harmonic =   1.12479) maximal distance =0.05424836
 next E    =  -169.390630   (d E  =  -0.29559)

[...]

 d Force = 0.3729466E-01[ 0.301E-01, 0.445E-01]  d Energy = 0.1386971E-01 0.234E-01
 d Force = 0.5314940E-01[-0.142E+00, 0.248E+00]  d Ewald  =-0.8044106E+01 0.810E+01

[...]

 d Force = 0.3353477E-03[ 0.245E-03, 0.426E-03]  d Energy = 0.3530048E-03-0.177E-04
 d Force =-0.2147674E+00[-0.218E+00,-0.212E+00]  d Ewald  = 0.1516021E+01-0.173E+01

[...]

 d Force = 0.2842168E-01[ 0.219E-01, 0.349E-01]  d Energy = 0.3012728E-01-0.171E-02
 d Force = 0.2317691E+00[ 0.946E-01, 0.369E+00]  d Ewald  =-0.3840935E+00 0.616E+00

[...]

 d Force = 0.5365579E-02[-0.331E-01, 0.438E-01]  d Energy = 0.2314650E-02 0.305E-02
 d Force =-0.3917298E+00[-0.969E+00, 0.185E+00]  d Ewald  =-0.1779584E+01 0.139E+01

[...]

 d Force = 0.6004323E-02[-0.450E-02, 0.165E-01]  d Energy = 0.9885833E-02-0.388E-02
 d Force = 0.3328810E+00[ 0.185E+00, 0.480E+00]  d Ewald  = 0.1060956E+01-0.728E+00

[...]

 d Force = 0.1908153E-02[-0.852E-03, 0.467E-02]  d Energy = 0.1332489E-02 0.576E-03
 d Force = 0.3669358E+01[ 0.361E+01, 0.373E+01]  d Ewald  =-0.4633996E+01 0.830E+01

[...]

 d Force =-0.1015210E-03[-0.549E-03, 0.346E-03]  d Energy = 0.1187424E-02-0.129E-02
 d Force =-0.1476702E+01[-0.149E+01,-0.147E+01]  d Ewald  = 0.1902610E+01-0.338E+01

[...]

 Conjugate gradient step on ions:
 trial-energy change:   -0.000502  1 .order   -0.000513   -0.000782   -0.000243
  (g-gl).g = 0.588E-03      g.g   = 0.570E-03  gl.gl    = 0.276E-02
 g(Force)  = 0.566E-03   g(Stress)= 0.389E-05 ortho     = 0.861E-04
 gamma     =   0.21346
 trial     =   1.32947
 opt step  =   1.92682  (harmonic =   1.92682) maximal distance =0.00424950
 next E    =  -169.628732   (d E  =  -0.00057)

[...]

 d Force = 0.9491033E-04[ 0.533E-04, 0.137E-03]  d Energy = 0.7033984E-04 0.246E-04
 d Force = 0.4544743E+00[ 0.454E+00, 0.455E+00]  d Ewald  = 0.7648581E+00-0.310E+00

[...]

 d Force =-0.8988917E-04[-0.286E-03, 0.107E-03]  d Energy =-0.1608922E-03 0.710E-04
 d Force = 0.9034753E+00[ 0.900E+00, 0.907E+00]  d Ewald  = 0.1524417E+01-0.621E+00

[...]

 d Force = 0.1118574E-03[-0.808E-05, 0.232E-03]  d Energy = 0.1561640E-03-0.443E-04
 d Force =-0.7307141E+00[-0.733E+00,-0.728E+00]  d Ewald  =-0.1233057E+01 0.502E+00

[...]

 eigenvalue-minimisations  :   864
 total energy-change (2. order) :-0.4672581E-03  (-0.6109367E-03)
 number of electron     108.9999848 magnetization
 augmentation part       43.7387562 magnetization

[...]

 Broyden mixing:
  rms(total) = 0.19800E-02    rms(broyden)= 0.19776E-02
  rms(prec ) = 0.32828E-02
  weight for this iteration     100.00

 eigenvalues of (default mixing * dielectric matrix)
  average eigenvalue GAMMA=   0.7168
  1.7995  0.9902  0.9902  0.1356  0.1808  0.2043

[...]

--------------------------------------- Iteration     80(   8)  ---------------------------------------

 eigenvalue-minimisations  :   588
 total energy-change (2. order) : 0.7090548E-06  (-0.4633519E-05)
 number of electron     108.9999848 magnetization
 augmentation part       43.7343277 magnetization

 Free energy of the ion-electron system (eV)
  alpha Z        PSCENC =       528.48625379
  Ewald energy   TEWEN  =     -5104.28953464
  -Hartree energ DENC   =      -757.87921564
  -exchange      EXHF   =         0.00000000
  -V(xc)+E(xc)   XCENC  =      -770.07413214
  PAW double counting   =      7695.48751577    -6892.68033178
  entropy T*S    EENTRO =        -0.10765404
  eigenvalues    EBANDS =       443.94411219
  atomic energy  EATOM  =      4687.48422623
  Solvation  Ediel_sol  =         0.00000000
  free energy    TOTEN  =      -169.62876027 eV

  energy without entropy =     -169.52110623  energy(sigma->0) =     -169.57493325

 average (electrostatic) potential at core
  the test charge radii are     1.2064  1.0103
  (the norm of the test charge is              1.0000)
       1 -39.6332       2 -39.6331       3 -39.6332       4 -39.6332       5 -39.6331
       6 -39.6332       7 -39.3830       8 -39.3830       9 -39.3830      10 -39.7268
      11 -39.7268      12 -39.7268      13 -39.7991      14 -39.7247      15 -39.7247
      16 -39.7247      17 -39.3790      18 -43.1579      19 -43.1578      20 -43.1578

 E-fermi :   6.0713     XC(G=0): -12.3272     alpha+bet :-14.5873

[...]

 k-point     4 :       0.5000   -0.0000    0.3333
  band No.  band energies     occupation
      1       0.7806      2.00000
      2       0.9843      2.00000
      3       1.9870      2.00000
      4       2.2117      2.00000
      5       2.3721      2.00000
      6       2.5991      2.00000
      7       2.7216      2.00000
      8       2.7594      2.00000
      9       2.7795      2.00000
     10       2.9329      2.00000
     11       3.0412      2.00000
     12       3.0807      2.00000
     13       3.0851      2.00000
     14       3.1536      2.00000
     15       3.3143      2.00000
     16       3.3731      2.00000
     17       3.4423      2.00000
     18       3.5430      2.00000
     19       3.5900      2.00000
     20       3.6091      2.00000
     21       3.6625      2.00000
     22       3.8038      2.00000
     23       3.9206      2.00000
     24       4.0492      2.00000
     25       4.0525      2.00000
     26       4.1132      2.00000
     27       4.2083      2.00000
     28       4.2355      2.00000
     29       4.2579      2.00000
     30       4.3447      2.00000
     31       4.4105      2.00000
     32       4.4454      2.00000
     33       4.5361      2.00000
     34       4.6226      2.00000
     35       4.6979      2.00000
     36       4.7980      2.00000
     37       4.8124      2.00000
     38       4.8993      2.00000
     39       4.9537      2.00000
     40       4.9910      2.00000
     41       5.0423      2.00000
     42       5.1227      2.00000
     43       5.2142      2.00000
     44       5.2586      2.00000
     45       5.4056      2.00000
     46       5.4276      2.00000
     47       5.4929      2.00000
     48       5.5491      2.00000
     49       5.6896      2.00000
     50       5.6973      2.00000
     51       5.8606      1.99711
     52       5.8922      1.98873
     53       5.9601      1.88432
     54       6.0313      1.42905
     55       6.0385      1.35725
     56       6.2195      0.03608
     57       6.2532      0.01011
     58       6.2747      0.00403
     59       6.4750      0.00000
     60       6.5135      0.00000
     61       6.5782      0.00000
     62       6.6717      0.00000
     63       6.7215      0.00000
     64       6.7643      0.00000
     65       6.8888      0.00000
     66       6.9509      0.00000
     67       7.0209      0.00000
     68       7.0534      0.00000

 soft charge-density along one line, spin component           1
         0         1         2         3         4         5         6         7         8         9
 total charge-density along one line

------------------------ aborting loop because EDIFF is reached ----------------------------------------

  FORCE on cell =-STRESS in cart. coord.  units (eV):
  Direction    XX          YY          ZZ          XY          YZ          ZX
  Alpha Z   528.48625   528.48625   528.48625
  Ewald   -1761.24354 -1761.24325 -1581.81606     0.00014     0.00000    -0.00000
  Hartree   226.44392   226.44390   305.11038    -0.00001    -0.00000    -0.00000
  E(xc)    -494.04904  -494.04923  -503.55944    -0.00017    -0.00000    -0.00000
  Local     316.13990   316.13882    54.78102    -0.00090    -0.00001    -0.00001
  n-local  -109.89341  -108.13113  -110.63946    -1.52726     0.00000    -0.00000
  augment   444.61247   444.61375   456.35803     0.00114     0.00001     0.00001
  Kinetic   848.21036   848.64991   851.10322    -0.38088    -0.00000     0.00000
  Fock        0.00000     0.00000     0.00000     0.00000     0.00000     0.00000
  Total      -0.19203    -0.19203    -0.17606    -0.00000    -0.00000     0.00000
  in kB      -1.13607    -1.13607    -1.04158    -0.00000    -0.00000     0.00000

 VOLUME and BASIS-vectors are now :
  energy-cutoff  :      267.88
  volume of cell :      270.82
      direct lattice vectors                 reciprocal lattice vectors
     8.222283579 -0.000000013 -0.000000000     0.121620714  0.070217746  0.000000000
    -4.111141306  7.120706238  0.000000000     0.000000000  0.140435508 -0.000000000
    -0.000000000  0.000000000  4.625582155     0.000000000 -0.000000000  0.216189004

  length of vectors
     8.222283579  8.222283148  4.625582155     0.140435501  0.140435508  0.216189004

 FORCES acting on ions
    electron-ion (+dipol)            ewald-force                    non-local-force                 convergence-correction
   -.606E+02 -.350E+02 -.808E+01   0.589E+02 0.340E+02 0.820E+01   0.161E+01 0.928E+00 -.127E+00   0.208E-01 0.120E-01 0.545E-02
   0.606E+02 -.350E+02 -.808E+01   -.589E+02 0.340E+02 0.820E+01   -.161E+01 0.928E+00 -.127E+00   -.208E-01 0.120E-01 0.545E-02
   -.112E-03 0.699E+02 -.808E+01   0.187E-03 -.680E+02 0.820E+01   -.104E-05 -.186E+01 -.127E+00   0.330E-05 -.241E-01 0.545E-02
   -.606E+02 -.350E+02 0.808E+01   0.589E+02 0.340E+02 -.820E+01   0.161E+01 0.928E+00 0.127E+00   0.208E-01 0.120E-01 -.545E-02
   0.606E+02 -.350E+02 0.808E+01   -.589E+02 0.340E+02 -.820E+01   -.161E+01 0.928E+00 0.127E+00   -.208E-01 0.120E-01 -.545E-02
   -.417E-04 0.699E+02 0.808E+01   0.116E-03 -.680E+02 -.820E+01   0.791E-06 -.186E+01 0.127E+00   -.340E-05 -.241E-01 -.545E-02
   -.356E+02 0.206E+02 -.251E-07   0.390E+02 -.225E+02 0.681E-07   -.335E+01 0.193E+01 0.508E-17   0.237E-01 -.137E-01 -.697E-11
   -.135E-03 -.412E+02 -.110E-05   0.291E-03 0.450E+02 -.746E-07   -.263E-06 -.387E+01 -.345E-17   -.123E-06 0.274E-01 -.104E-08
   0.356E+02 0.206E+02 0.113E-05   -.390E+02 -.225E+02 0.642E-08   0.335E+01 0.193E+01 -.164E-17   -.237E-01 -.137E-01 0.105E-08
   -.354E+02 0.205E+02 0.128E-07   0.358E+02 -.207E+02 -.347E-07   -.350E+00 0.202E+00 0.531E-18   0.186E-01 -.107E-01 0.347E-11
   -.515E-03 -.409E+02 -.144E-05   0.101E-02 0.413E+02 0.380E-07   -.274E-07 -.404E+00 -.360E-18   -.255E-06 0.214E-01 0.171E-08
   0.354E+02 0.205E+02 0.143E-05   -.358E+02 -.207E+02 -.327E-08   0.350E+00 0.202E+00 -.171E-18   -.186E-01 -.107E-01 -.171E-08
   0.254E-03 -.134E-03 0.865E-12   -.283E-03 0.147E-03 0.165E-11   -.400E-17 0.606E-17 -.300E-22   -.374E-06 0.212E-06 0.198E-12
   -.788E+01 0.455E+01 0.151E-07   0.649E+01 -.375E+01 -.416E-07   0.138E+01 -.795E+00 -.209E-17   0.270E-02 -.156E-02 0.124E-11
   0.182E-03 -.910E+01 0.156E-05   -.394E-03 0.750E+01 0.455E-07   0.108E-06 0.159E+01 0.142E-17   -.223E-06 0.312E-02 -.808E-10
   0.788E+01 0.455E+01 -.158E-05   -.649E+01 -.375E+01 -.392E-08   -.138E+01 -.795E+00 0.673E-18   -.270E-02 -.156E-02 0.789E-10
   -.452E-04 0.256E-04 0.152E-12   0.788E-04 -.492E-04 0.728E-14   0.156E-16 0.222E-19 -.127E-22   -.174E-07 0.126E-07 0.891E-14
   -.800E+01 0.462E+01 -.229E-07   0.447E+01 -.258E+01 0.627E-07   0.354E+01 -.204E+01 -.537E-17   -.685E-02 0.396E-02 -.234E-11
   -.159E-03 -.924E+01 -.337E-06   -.736E-03 0.516E+01 -.688E-07   0.278E-06 0.409E+01 0.364E-17   -.293E-05 -.792E-02 -.331E-08
   0.800E+01 0.462E+01 0.360E-06   -.447E+01 -.258E+01 0.606E-08   -.354E+01 -.204E+01 0.173E-17   0.686E-02 0.396E-02 0.331E-08
   -.964E-03 0.560E-03 0.155E-10   -.204E-13 -.182E-13 0.266E-14   -.444E-15 0.444E-15 0.193E-22   0.415E-06 -.243E-06 0.124E-13

 POSITION                                       TOTAL-FORCE (eV/Angst)
     -1.58621      3.83134      1.13257        -0.000102     -0.000056     -0.008083
      1.58621      3.83134      1.13257         0.000099     -0.000060     -0.008083
      4.11114     -0.54198      1.13257         0.000003      0.000116     -0.008083
     -1.58621      3.83134      3.49301        -0.000099     -0.000060      0.008083
      1.58621      3.83134      3.49301         0.000102     -0.000056      0.008083
      4.11114     -0.54198      3.49301        -0.000003      0.000116      0.008083
     -2.21447      6.02566      0.00000         0.005426     -0.003133     -0.000000
      0.00000      2.19009      0.00000         0.000000      0.006265     -0.000000
      2.21447      6.02566      0.00000        -0.005426     -0.003133     -0.000000
     -2.65947      6.28258      2.31279        -0.007683      0.004436     -0.000000
      0.00000      1.67625      2.31279        -0.000000     -0.008872     -0.000000
      2.65947      6.28258      2.31279         0.007683      0.004436     -0.000000
      4.11115      2.37357      2.31279         0.000000     -0.000000     -0.000000
      5.40534      1.62637     -0.00000        -0.006418      0.003706     -0.000000
      4.11114      3.86798      0.00000        -0.000000     -0.007411     -0.000000
      2.81695      1.62637      0.00000         0.006418      0.003706     -0.000000
     -0.00000      0.00000      0.00000         0.000000     -0.000000     -0.000000
      6.05367      1.25205      2.31279         0.000260     -0.000150     -0.000000
      4.11115      4.61660      2.31279         0.000000      0.000300     -0.000000
      2.16862      1.25205      2.31279        -0.000260     -0.000150     -0.000000
    total drift:                               -0.000964      0.000560      0.000000

  FREE ENERGIE OF THE ION-ELECTRON SYSTEM (eV)
  free  energy   TOTEN  =      -169.62876027 eV

  energy  without entropy=     -169.52110623  energy(sigma->0) =     -169.57493325

 d Force = 0.6052856E-04[-0.522E-05, 0.126E-03]  d Energy = 0.2736240E-04 0.332E-04
 d Force = 0.6768935E+00[ 0.675E+00, 0.679E+00]  d Ewald  =-0.1088692E+01 0.177E+01

 Conjugate gradient step on ions:
 trial-energy change:   -0.000027  1 .order   -0.000034   -0.000268    0.000200
  (g-gl).g = 0.207E-03      g.g   = 0.185E-03  gl.gl    = 0.570E-03
 g(Force)  = 0.814E-04   g(Stress)= 0.104E-03 ortho     =-0.174E-04
 gamma     =   0.36299
 trial     =   1.49454
 opt step  =   0.85564  (harmonic =   0.85564) maximal distance =0.00071155
 next E    =  -169.628810   (d E  =  -0.00008)

 reached required accuracy - stopping structural energy minimisation