 vasp.5.4.4.18Apr17-6-g9f103f2a35 (build Jul 11 2019 11:52:51) complex

 executed on             LinuxIFC date 2023.11.29  16:45:26

 INCAR:
 POTCAR:    PAW_PBE V 08Apr2002
 POTCAR:    PAW_PBE Fe 06Sep2000
 POTCAR:    PAW_PBE V 08Apr2002
   VRHFIN =V: p6 d4 s1

   TITEL  = PAW_PBE V 08Apr2002
   POMASS =   50.941; ZVAL   =    5.000    mass and valenz
   ENMAX  =  192.543; ENMIN  =  144.408 eV

 POTCAR:    PAW_PBE Fe 06Sep2000
   VRHFIN =Fe:  d7 s1

   TITEL  = PAW_PBE Fe 06Sep2000
   POMASS =   55.847; ZVAL   =    8.000    mass and valenz
   ENMAX  =  267.882; ENMIN  =  200.911 eV

  PAW_PBE V 08Apr2002                   :
  PAW_PBE Fe 06Sep2000                  :

 POSCAR: EA0     6.374  9.711  4.138 90.00 90.00
  positions in direct lattice
 exchange correlation table for  LEXCH =        8
   RHO(1)=    0.500       N(1)  =     2000
   RHO(2)=  100.500       N(2)  =     4000

 ion  position               nearest neighbor table
   1  0.194  0.193  0.792-  19 2.51   6 2.54   6 2.54  15 2.56   3 2.56   3 2.57  13 2.57  11 2.60
                             9 2.90   9 2.90  20 2.92   5 2.93   5 2.93  12 2.99
   2  0.201  0.696  0.791-  20 2.49  14 2.50  12 2.51  18 2.51  18 2.51   4 2.58   4 2.58  16 2.61
                            10 2.88  10 2.88  13 2.89   8 2.90   8 2.90  19 2.98
   3  0.099  0.038  0.292-  18 2.48  12 2.54  12 2.54   9 2.55   5 2.55   1 2.56   1 2.57   7 2.61
                            13 2.92  13 2.92   8 2.92  15 2.93  15 2.93   6 2.99
   4  0.092  0.540  0.291-   8 2.48   6 2.52  19 2.52  19 2.52  17 2.55  10 2.57   2 2.58   2 2.58
                            20 2.89  20 2.89  16 2.92  16 2.92   9 2.94  18 2.96
   5  0.497  0.141  0.292-   7 2.50   6 2.51  11 2.55  11 2.55   3 2.55  13 2.56  13 2.56   9 2.56
                            15 2.92  15 2.92   1 2.93   1 2.93  18 2.97  17 2.98
   6  0.297  0.342  0.291-   5 2.51   4 2.52  20 2.52  20 2.53  17 2.53   1 2.54   1 2.54   9 2.56
                            19 2.93  19 2.93  11 2.94  11 2.94  10 2.97   3 2.99
   7  0.689  0.938  0.292-   5 2.50  18 2.52   8 2.53  14 2.54  14 2.54  15 2.55  15 2.55   3 2.61
                            13 2.88  13 2.88  10 2.91  12 2.92  12 2.92   9 3.00
   8  0.902  0.742  0.291-   4 2.48  18 2.52  12 2.53  12 2.53   7 2.53  16 2.55  16 2.55  10 2.61
                             2 2.90   2 2.90   3 2.92  14 2.95  14 2.95  17 2.96
   9  0.897  0.242  0.292-   3 2.55  17 2.55  19 2.55  19 2.56   5 2.56   6 2.56  15 2.56  15 2.56
                            11 2.89  11 2.89   1 2.90   1 2.90   4 2.94   7 3.00
  10  0.492  0.644  0.291-  18 2.45  17 2.51  14 2.52  14 2.52   4 2.57  20 2.57  20 2.57   8 2.61
                             2 2.88   2 2.88   7 2.91  16 2.93  16 2.93   6 2.97
  11  0.602  0.291  0.792-  15 2.51  19 2.53   5 2.55  17 2.55   5 2.55  17 2.55  20 2.57   1 2.60
                             9 2.89   9 2.89   6 2.94   6 2.94  16 2.96  13 3.00
  12  0.991  0.891  0.792-  15 2.47   2 2.51   8 2.53   8 2.53   3 2.54   3 2.54  14 2.55  13 2.60
                             7 2.92   7 2.92  16 2.94  18 2.94  18 2.94   1 2.99
  13  0.398  0.988  0.792-  14 2.47  18 2.54  18 2.54  15 2.55   5 2.56   5 2.56   1 2.57  12 2.60
                             7 2.88   7 2.88   2 2.89   3 2.92   3 2.92  11 3.00
  14  0.593  0.789  0.791-  13 2.47  16 2.48   2 2.50  10 2.52  10 2.52   7 2.54   7 2.54  12 2.55
                            18 2.90  18 2.91   8 2.95   8 2.95  15 2.96  20 2.96
  15  0.797  0.088  0.792-  12 2.47  11 2.51  13 2.55   7 2.55   7 2.55   1 2.56   9 2.56   9 2.56
                             5 2.92   5 2.92   3 2.93   3 2.93  14 2.96  19 3.01
  16  0.793  0.593  0.791-  14 2.48  19 2.51  17 2.54  17 2.54   8 2.55   8 2.55  20 2.61   2 2.61
                             4 2.92   4 2.92  10 2.93  10 2.93  12 2.94  11 2.96
  17  0.692  0.444  0.291-  10 2.51   6 2.53  16 2.54  16 2.54   4 2.55   9 2.55  11 2.55  11 2.55
                            19 2.93  19 2.93  20 2.93  20 2.93   8 2.96   5 2.98
  18  0.296  0.840  0.292-  10 2.45   3 2.48   2 2.51   2 2.51   8 2.52   7 2.52  13 2.54  13 2.54
                            14 2.90  14 2.91  12 2.94  12 2.94   4 2.96   5 2.97
  19  0.996  0.394  0.791-  20 2.49  16 2.51   1 2.51   4 2.52   4 2.52  11 2.53   9 2.55   9 2.56
                             6 2.93   6 2.93  17 2.93  17 2.93   2 2.98  15 3.01
  20  0.386  0.490  0.791-  19 2.49   2 2.49   6 2.52   6 2.53  11 2.57  10 2.57  10 2.57  16 2.61
                             4 2.89   4 2.89   1 2.92  17 2.93  17 2.93  14 2.96

  LATTYP: Found a triclinic cell.
 ALAT       =     6.3743990651
 B/A-ratio  =     1.5233628247
 C/A-ratio  =     0.6491667748
 COS(alpha) =     0.0000110394
 COS(beta)  =     0.0000721911
 COS(gamma) =     0.1813660932

  Lattice vectors:

 A1 = (   6.3742770000,   0.0394440000,  -0.0005820000)
 A2 = (   1.8202170000,  -9.5383990000,   0.0017550000)
 A3 = (  -0.0000740000,  -0.0008220000,  -4.1380480000)

Analysis of symmetry for initial positions (statically):
 Subroutine PRICEL returns:
 Original cell was already a primitive cell.

 Routine SETGRP: Setting up the symmetry group for a
 triclinic supercell.

 Subroutine GETGRP returns: Found  1 space group operations
 (whereof  1 operations were pure point group operations)
 out of a pool of  2 trial point group operations.

The static configuration has the point symmetry C_1 .

Analysis of symmetry for dynamics (positions and initial velocities):
 Subroutine PRICEL returns:
 Original cell was already a primitive cell.

 Routine SETGRP: Setting up the symmetry group for a
 triclinic supercell.

 Subroutine GETGRP returns: Found  1 space group operations
 (whereof  1 operations were pure point group operations)
 out of a pool of  2 trial point group operations.

The dynamic configuration has the point symmetry C_1 .

 Subroutine INISYM returns: Found  1 space group operations
 (whereof  1 operations are pure point group operations),
 and found     1 'primitive' translations

 KPOINTS: EA

Automatic generation of k-mesh.
Space group operators:
 irot       det(A)        alpha          n_x          n_y          n_z        tau_x        tau_y        tau_z
    1     1.000000     0.000000     1.000000     0.000000     0.000000     0.000000     0.000000     0.000000

 Subroutine IBZKPT returns following result:

 Found      8 irreducible k-points:

 Following reciprocal coordinates:
            Coordinates               Weight
  0.000000  0.000000  0.000000      1.000000
  0.500000  0.000000 -0.000000      1.000000
 -0.000000  0.500000  0.000000      1.000000
  0.500000  0.500000 -0.000000      1.000000
  0.000000  0.000000  0.333333      2.000000
  0.500000 -0.000000  0.333333      2.000000
  0.000000  0.500000  0.333333      2.000000
  0.500000  0.500000  0.333333      2.000000

 Following cartesian coordinates:
            Coordinates               Weight
  0.000000  0.000000  0.000000      1.000000
  0.078348  0.014951 -0.000004      1.000000
 -0.000324  0.052358 -0.000010      1.000000
  0.078024  0.067309 -0.000015      1.000000
  0.000007  0.000016  0.080553      2.000000
  0.078355  0.014967  0.080549      2.000000
 -0.000317  0.052374  0.080543      2.000000
  0.078031  0.067325  0.080539      2.000000

 SYSTEM =  unknown system
 POSCAR =  EA0     6.374  9.711  4.138 90.00 90.00

 Startparameter for this run:
   NWRITE =      2    write-flag & timer
   PREC   = normal    normal or accurate (medium, high low for compatibility)
   ISTART =      0    job   : 0-new  1-cont  2-samecut
   ICHARG =      2    charge: 1-file 2-atom 10-const
   ISPIN  =      1    spin polarized calculation?
   LNONCOLLINEAR =      F non collinear calculations
   LSORBIT =      F    spin-orbit coupling
   INIWAV =      1    electr: 0-lowe 1-rand  2-diag
   LASPH  =      F    aspherical Exc in radial PAW
   METAGGA=      F    non-selfconsistent MetaGGA calc.

 Electronic Relaxation 1
   ENCUT  =  267.9 eV  19.69 Ry    4.44 a.u.   8.51 12.96  5.52*2*pi/ulx,y,z
   ENINI  =  267.9     initial cutoff
   ENAUG  =  511.4 eV  augmentation charge cutoff
   NELM   =     60;   NELMIN=  2; NELMDL= -5     # of ELM steps
   EDIFF  = 0.1E-04   stopping-criterion for ELM
   LREAL  =      F    real-space projection
   NLSPLINE    = F    spline interpolate recip. space projectors
   LCOMPAT=      F    compatible to vasp.4.4
   GGA_COMPAT  = T    GGA compatible to vasp.4.4-vasp.4.6
   LMAXPAW     = -100 max onsite density
   LMAXMIX     =    2 max onsite mixed and CHGCAR
   VOSKOWN=      0    Vosko Wilk Nusair interpolation
   ROPT   =    0.00000   0.00000
 Ionic relaxation
   EDIFFG = -.1E-01   stopping-criterion for IOM
   NSW    =    500    number of steps for IOM
   NBLOCK =      1;   KBLOCK =    500    inner block; outer block
   IBRION =      2    ionic relax: 0-MD 1-quasi-New 2-CG
   NFREE  =      1    steps in history (QN), initial steepest desc. (CG)
   ISIF   =      3    stress and relaxation
   IWAVPR =     11    prediction:  0-non 1-charg 2-wave 3-comb
   ISYM   =      2    0-nonsym 1-usesym 2-fastsym
   LCORR  =      T    Harris-Foulkes like correction to forces

   POTIM  = 0.5000    time-step for ionic-motion
   TEIN   =    0.0    initial temperature
   TEBEG  =    0.0;   TEEND  =   0.0 temperature during run
   SMASS  =  -3.00    Nose mass-parameter (am)
   estimated Nose-frequenzy (Omega)   =  0.10E-29 period in steps =****** mass=  -0.929E-27a.u.
   SCALEE = 1.0000    scale energy and forces
   NPACO  =    256;   APACO  = 16.0  distance and # of slots for P.C.
   PSTRESS=    0.0 pullay stress

  Mass of Ions in am
   POMASS =  50.94 55.85
  Ionic Valenz
   ZVAL   =   5.00  8.00
  Atomic Wigner-Seitz radii
  virtual crystal weights
   VCA    =   1.00  1.00
   NELECT =     109.0000    total number of electrons
   NUPDOWN=      -1.0000    fix difference up-down

 DOS related values:
   EMIN   =  10.00;   EMAX   =-10.00  energy-range for DOS
   EFERMI =   0.00
   ISMEAR =     0;   SIGMA  =   0.10  broadening in eV -4-tet -1-fermi 0-gaus

 Electronic relaxation 2 (details)
   IALGO  =     38    algorithm
   LDIAG  =      T    sub-space diagonalisation (order eigenvalues)
   LSUBROT=      F    optimize rotation matrix (better conditioning)
   TURBO    =      0    0=normal 1=particle mesh
   IRESTART =      0    0=no restart 2=restart with 2 vectors
   NREBOOT  =      0    no. of reboots
   NMIN     =      0    reboot dimension
   EREF     =   0.00    reference energy to select bands
   IMIX   =      4    mixing-type and parameters
     AMIX     =   0.40;   BMIX     =  1.00
     AMIX_MAG =   1.60;   BMIX_MAG =  1.00
     AMIN     =   0.10
     WC   =   100.;   INIMIX=   1;  MIXPRE=   1;  MAXMIX= -45

 Intra band minimization:
   WEIMIN = 0.0010     energy-eigenvalue tresh-hold
   EBREAK =  0.37E-07  absolut break condition
   DEPER  =   0.30     relativ break condition

   TIME   =   0.40     timestep for ELM

  volume/ion in A,a.u.               =      12.59        84.99
  Fermi-wavevector in a.u.,A,eV,Ry     =   1.238261  2.339974 20.861678  1.533290
  Thomas-Fermi vector in A             =   2.372794

 Write flags
   LWAVE        =      F    write WAVECAR
[...]
      3.30849      2.80250      3.27446        -0.312325      0.305850     -0.000728
      4.69698      8.53398      3.27358         0.180798      0.116752     -0.002291
      0.74156      9.43920      3.27426        -0.339410      0.092682     -0.001997
      2.34174      7.55150      3.27291         0.174494      0.041977      0.001599
      4.91659      0.87446      3.27545         0.060191      0.134659      0.000008
      3.97462      5.68514      3.27200        -0.054955     -0.474743      0.003078
      3.60364      4.26529      1.20390         0.220160     -0.143986      0.000233
      0.35731      8.02069      1.20460        -0.080695      0.010961     -0.001011
      5.63097      3.79788      3.27332        -0.065377     -0.168869      0.000223
      1.56639      4.69148      3.27281         0.386641      0.279245      0.001071
    total drift:                               -0.002163     -0.001246      0.000439

  FREE ENERGIE OF THE ION-ELECTRON SYSTEM (eV)
  free  energy   TOTEN  =      -178.70660978 eV

  energy  without entropy=     -178.59070046  energy(sigma->0) =     -178.64865512

[...]

 d Force = 0.6670066E-01[ 0.432E-01, 0.902E-01]  d Energy = 0.7464185E-01-0.794E-02
 d Force =-0.2098233E+01[-0.256E+01,-0.164E+01]  d Ewald  = 0.1778908E+01-0.388E+01

 Steepest descent step on ions:
 trial-energy change:   -0.074642  1 .order   -0.074406   -0.103954   -0.044858
  (g-gl).g = 0.104E+00      g.g   = 0.104E+00  gl.gl    = 0.000E+00
 g(Force)  = 0.905E-01   g(Stress)= 0.135E-01 ortho     = 0.000E+00
 gamma     =   0.00000
 trial     =   1.00000
 opt step  =   1.72885  (harmonic =   1.75906) maximal distance =0.03603921
 next E    =  -178.797690   (d E  =  -0.09108)

[...]

 d Force = 0.7363810E-02[ 0.472E-02, 0.100E-01]  d Energy = 0.7377706E-02-0.139E-04
 d Force =-0.8451044E+00[-0.900E+00,-0.791E+00]  d Ewald  =-0.1290998E+02 0.121E+02

 Conjugate gradient step on ions:
 trial-energy change:   -0.007378  1 .order   -0.007430   -0.018254    0.003394
  (g-gl).g = 0.170E-01      g.g   = 0.161E-01  gl.gl    = 0.104E+00
 g(Force)  = 0.759E-02   g(Stress)= 0.849E-02 ortho     =-0.905E-03
 gamma     =   0.16338
 trial     =   1.14577
 opt step  =   0.96391  (harmonic =   0.96612) maximal distance =0.00681095
 next E    =  -178.805019   (d E  =  -0.00765)

[...]

 d Force =-0.8139302E-03[-0.880E-03,-0.747E-03]  d Energy = 0.2602210E-03-0.107E-02
 d Force = 0.1410066E+00[ 0.140E+00, 0.142E+00]  d Ewald  = 0.2052180E+01-0.191E+01

[...]

 Conjugate gradient step on ions:
 trial-energy change:   -0.007030  1 .order   -0.007062   -0.011536   -0.002588
  (g-gl).g = 0.113E-01      g.g   = 0.117E-01  gl.gl    = 0.161E-01
 g(Force)  = 0.380E-02   g(Stress)= 0.793E-02 ortho     = 0.275E-03
 gamma     =   0.70267
 trial     =   0.96762
 opt step  =   1.24753  (harmonic =   1.24753) maximal distance =0.01030272
 next E    =  -178.812446   (d E  =  -0.00744)

[...]

 d Force = 0.5368844E-04[ 0.530E-04, 0.544E-04]  d Energy = 0.3621480E-05 0.501E-04
 d Force =-0.1013296E-01[-0.101E-01,-0.101E-01]  d Ewald  = 0.1964601E+00-0.207E+00

[...]

 d Force = 0.1550529E-02[ 0.628E-03, 0.247E-02]  d Energy = 0.1853621E-02-0.303E-03
 d Force = 0.1128748E+00[ 0.998E-01, 0.126E+00]  d Ewald  =-0.3437778E+01 0.355E+01

[...]

 d Force = 0.3867381E-04[ 0.370E-04, 0.404E-04]  d Energy = 0.2204296E-05 0.365E-04
 d Force = 0.6432003E-02[ 0.638E-02, 0.649E-02]  d Ewald  =-0.2219348E+00 0.228E+00

[...]

 d Force = 0.6212880E-03[ 0.308E-03, 0.935E-03]  d Energy = 0.7613706E-03-0.140E-03
 d Force = 0.1846033E+00[ 0.180E+00, 0.190E+00]  d Ewald  = 0.1865069E+01-0.168E+01

[...]

 d Force = 0.4894597E-04[ 0.443E-04, 0.536E-04]  d Energy = 0.1850368E-04 0.304E-04
 d Force = 0.3112268E-01[ 0.310E-01, 0.313E-01]  d Ewald  = 0.3238308E+00-0.293E+00

[...]

 d Force = 0.2819943E-03[ 0.106E-03, 0.458E-03]  d Energy = 0.1718580E-03 0.110E-03
 d Force =-0.9000307E-03[-0.372E-02, 0.192E-02]  d Ewald  =-0.2066291E+01 0.207E+01

 Conjugate gradient step on ions:
 trial-energy change:   -0.000172  1 .order   -0.000207   -0.000660    0.000247
  (g-gl).g = 0.403E-03      g.g   = 0.475E-03  gl.gl    = 0.102E-02
 g(Force)  = 0.273E-03   g(Stress)= 0.203E-03 ortho     = 0.856E-04
 gamma     =   0.39613
 trial     =   1.29593
 opt step  =   0.94321  (harmonic =   0.94321) maximal distance =0.00183401
 next E    =  -178.823276   (d E  =  -0.00024)

[...]

 d Force =-0.3797604E-04[-0.470E-04,-0.289E-04]  d Energy = 0.2478611E-04-0.628E-04
 d Force = 0.8070125E-03[ 0.599E-03, 0.102E-02]  d Ewald  = 0.5627927E+00-0.562E+00

[...]

 d Force = 0.1215026E-03[-0.119E-04, 0.255E-03]  d Energy = 0.1621163E-03-0.406E-04
 d Force =-0.1154480E+00[-0.118E+00,-0.113E+00]  d Ewald  = 0.8847691E+00-0.100E+01

[...]

 d Force = 0.1339500E-06[-0.163E-05, 0.190E-05]  d Energy =-0.1263709E-05 0.140E-05
 d Force = 0.1872124E-01[ 0.187E-01, 0.188E-01]  d Ewald  =-0.1402764E+00 0.159E+00

[...]

 eigenvalue-minimisations  :  1752
 total energy-change (2. order) :-0.3393040E-04  (-0.5417917E-04)
 number of electron     109.0000185 magnetization
 augmentation part       43.1113737 magnetization

[...]

 Broyden mixing:
  rms(total) = 0.23821E-02    rms(broyden)= 0.23808E-02
  rms(prec ) = 0.37406E-02
  weight for this iteration     100.00

 eigenvalues of (default mixing * dielectric matrix)
  average eigenvalue GAMMA=   0.5750
  1.4452  0.9484  0.2094  0.1247  0.1472

[...]

--------------------------------------- Iteration     20(   7)  ---------------------------------------

 eigenvalue-minimisations  :   784
 total energy-change (2. order) : 0.4984363E-05  (-0.1768797E-05)
 number of electron     109.0000185 magnetization
 augmentation part       43.1097828 magnetization

 Free energy of the ion-electron system (eV)
  alpha Z        PSCENC =       568.66476242
  Ewald energy   TEWEN  =     -5360.81331171
  -Hartree energ DENC   =      -617.92598299
  -exchange      EXHF   =         0.00000000
  -V(xc)+E(xc)   XCENC  =      -767.95280564
  PAW double counting   =      7778.74902812    -6976.70194065
  entropy T*S    EENTRO =        -0.11305807
  eigenvalues    EBANDS =       509.78565511
  atomic energy  EATOM  =      4687.48422623
  Solvation  Ediel_sol  =         0.00000000
  free energy    TOTEN  =      -178.82342717 eV

  energy without entropy =     -178.71036910  energy(sigma->0) =     -178.76689814

 average (electrostatic) potential at core
  the test charge radii are     1.2064  1.0103
  (the norm of the test charge is              1.0000)
       1 -38.8676       2 -39.1195       3 -38.8316       4 -38.9500       5 -38.7152
       6 -38.9365       7 -38.8149       8 -38.8300       9 -38.9389      10 -39.0796
      11 -38.9120      12 -38.6811      13 -38.9431      14 -38.6710      15 -38.7133
      16 -38.9253      17 -38.6487      18 -42.7490      19 -42.7649      20 -42.7709

 E-fermi :   6.5474     XC(G=0): -12.8007     alpha+bet :-15.6963

[...]

 k-point     8 :       0.5000    0.5000    0.3333
  band No.  band energies     occupation
      1       1.6141      2.00000
      2       1.8881      2.00000
      3       2.0127      2.00000
      4       2.2701      2.00000
      5       2.9201      2.00000
      6       3.0454      2.00000
      7       3.3624      2.00000
      8       3.4420      2.00000
      9       3.4838      2.00000
     10       3.5921      2.00000
     11       3.6481      2.00000
     12       3.6747      2.00000
     13       3.7691      2.00000
     14       3.8015      2.00000
     15       3.8434      2.00000
     16       3.8512      2.00000
     17       3.8849      2.00000
     18       3.9972      2.00000
     19       4.0159      2.00000
     20       4.0539      2.00000
     21       4.1059      2.00000
     22       4.1243      2.00000
     23       4.7137      2.00000
     24       4.7523      2.00000
     25       4.8254      2.00000
     26       4.8833      2.00000
     27       4.9511      2.00000
     28       5.0596      2.00000
     29       5.1535      2.00000
     30       5.2152      2.00000
     31       5.2377      2.00000
     32       5.2839      2.00000
     33       5.3573      2.00000
     34       5.3681      2.00000
     35       5.4119      2.00000
     36       5.4485      2.00000
     37       5.5177      2.00000
     38       5.5585      2.00000
     39       5.5842      2.00000
     40       5.6156      2.00000
     41       5.7596      2.00000
     42       5.7763      2.00000
     43       5.8089      2.00000
     44       5.9431      2.00000
     45       5.9648      2.00000
     46       6.0289      2.00000
     47       6.0412      2.00000
     48       6.1284      2.00000
     49       6.1667      2.00000
     50       6.2685      1.99992
     51       6.3723      1.98670
     52       6.3948      1.96901
     53       6.5411      1.07061
     54       6.5726      0.72117
     55       6.5864      0.58070
     56       6.6870      0.04834
     57       6.7811      0.00095
     58       6.8343      0.00005
     59       6.9186      0.00000
     60       6.9805      0.00000
     61       7.0907      0.00000
     62       7.1591      0.00000
     63       7.2920      0.00000
     64       7.3675      0.00000
     65       7.4465      0.00000
     66       7.4686      0.00000
     67       7.5770      0.00000
     68       7.7024      0.00000

 soft charge-density along one line, spin component           1
         0         1         2         3         4         5         6         7         8         9
 total charge-density along one line

------------------------ aborting loop because EDIFF is reached ----------------------------------------

  FORCE on cell =-STRESS in cart. coord.  units (eV):
  Direction    XX          YY          ZZ          XY          YZ          ZX
  Alpha Z   568.66476   568.66476   568.66476
  Ewald   -1774.78226 -1825.83918 -1760.20600   -19.57939    -0.02552    -0.00160
  Hartree   223.04447   159.72291   235.19078     1.70211     0.00704    -0.00002
  E(xc)    -498.52596  -498.71115  -497.66540     1.18948     0.00169     0.00014
  Local     271.15052   391.60221   249.08360    16.58943     0.01286     0.00096
  n-local   -89.07939   -91.78344   -90.17202     0.77364     0.00224    -0.00005
  augment   449.48037   449.02435   447.57434    -1.33536    -0.00140    -0.00014
  Kinetic   849.98637   847.26399   847.50253     0.68649     0.00217     0.00050
  Fock        0.00000     0.00000     0.00000     0.00000     0.00000     0.00000
  Total      -0.06111    -0.05555    -0.02741     0.02640    -0.00091    -0.00022
  in kB      -0.38901    -0.35363    -0.17448     0.16807    -0.00581    -0.00143

 VOLUME and BASIS-vectors are now :
  energy-cutoff  :      267.88
  volume of cell :      251.69
      direct lattice vectors                 reciprocal lattice vectors
     6.393666736  0.042072345 -0.000301247     0.156207396  0.029995132 -0.000016193
    -1.821569014  9.486290141 -0.001649945    -0.000692792  0.105282253 -0.000022824
     0.000256769  0.000900137  4.144426754     0.000011078  0.000044094  0.241287883

  length of vectors
     6.393805166  9.659597147  4.144426860     0.159061179  0.105284534  0.241287887

 FORCES acting on ions
    electron-ion (+dipol)            ewald-force                    non-local-force                 convergence-correction
   -.136E+02 0.536E+02 -.101E-01   0.136E+02 -.541E+02 0.989E-02   -.628E-01 0.433E+00 0.692E-04   0.916E-03 -.322E-02 -.375E-04
   0.272E+02 -.287E+02 -.629E-02   -.274E+02 0.291E+02 0.630E-02   0.212E+00 -.376E+00 0.129E-03   -.497E-03 -.799E-02 0.417E-04
   0.188E+02 -.840E+01 0.241E-02   -.190E+02 0.825E+01 -.308E-02   0.159E+00 0.160E+00 0.552E-03   -.644E-02 -.407E-02 -.607E-04
   0.199E+02 -.224E+02 -.125E-02   -.208E+02 0.222E+02 0.153E-02   0.986E+00 0.173E+00 -.157E-03   0.244E-02 0.432E-02 0.356E-04
   -.642E+01 0.115E+02 -.255E-02   0.663E+01 -.111E+02 0.226E-02   -.211E+00 -.368E+00 0.235E-03   -.386E-04 0.357E-02 -.302E-04
   -.146E+02 0.558E+02 -.111E-01   0.155E+02 -.561E+02 0.113E-01   -.900E+00 0.319E+00 -.162E-03   0.692E-02 0.156E-01 0.109E-04
   -.286E+02 -.228E+02 0.972E-02   0.289E+02 0.228E+02 -.104E-01   -.328E+00 -.157E-01 0.549E-03   0.937E-02 0.548E-03 -.455E-04
   0.310E+02 -.213E+02 0.727E-03   -.314E+02 0.214E+02 -.543E-05   0.413E+00 -.556E-01 -.619E-03   -.527E-02 -.588E-02 0.428E-04
   0.111E+02 0.572E+02 -.125E-01   -.108E+02 -.574E+02 0.125E-01   -.276E+00 0.204E+00 -.665E-04   -.195E-02 -.257E-02 -.156E-04
   -.346E+02 -.282E+02 0.561E-02   0.346E+02 0.284E+02 -.484E-02   0.382E-01 -.198E+00 -.615E-03   0.618E-02 -.165E-01 0.604E-04
   0.280E-01 0.522E+02 -.105E-01   -.191E+00 -.522E+02 0.103E-01   0.170E+00 0.235E-02 0.194E-03   -.430E-02 0.146E-01 -.476E-05
   0.229E+02 -.198E+02 0.503E-02   -.235E+02 0.200E+02 -.546E-02   0.691E+00 -.231E+00 0.350E-03   -.365E-02 0.133E-02 -.272E-04
   -.770E+01 -.353E+02 0.186E-01   0.778E+01 0.355E+02 -.188E-01   -.779E-01 -.149E+00 0.378E-04   0.369E-03 0.135E-02 -.581E-04
   -.305E+02 -.329E+02 0.483E-02   0.314E+02 0.334E+02 -.459E-02   -.894E+00 -.420E+00 -.137E-03   0.511E-02 -.886E-02 0.252E-04
   0.211E+01 0.203E+02 -.279E-02   -.230E+01 -.209E+02 0.235E-02   0.188E+00 0.570E+00 0.308E-03   0.172E-02 -.381E-02 -.498E-04
   0.181E+01 -.396E+02 0.862E-02   -.162E+01 0.397E+02 -.814E-02   -.186E+00 -.137E+00 -.328E-03   -.842E-02 -.464E-02 0.482E-04
   0.899E+00 0.959E+01 -.579E-02   -.976E+00 -.965E+01 0.592E-02   0.903E-01 0.502E-01 -.237E-04   -.935E-02 0.931E-02 0.284E-04
   0.542E+01 -.472E+02 0.119E-01   -.555E+01 0.476E+02 -.118E-01   0.135E+00 -.344E+00 -.646E-04   -.626E-02 -.232E-02 -.332E-04
   0.382E+02 0.459E+02 -.884E-02   -.385E+02 -.461E+02 0.888E-02   0.367E+00 0.161E+00 -.216E-04   0.117E-02 0.137E-01 0.396E-04
   -.432E+02 0.480E+00 0.445E-02   0.436E+02 -.708E+00 -.416E-02   -.398E+00 0.227E+00 -.245E-03   0.177E-01 0.245E-02 0.112E-03
   -.120E+00 -.141E-01 0.304E-03   0.924E-13 0.356E-13 -.953E-14   0.115E+00 0.484E-02 -.152E-04   0.571E-02 0.681E-02 0.822E-04

 POSITION                                       TOTAL-FORCE (eV/Angst)
      0.85974      1.85201      3.27979        -0.000055     -0.004801     -0.000155
      0.05189      6.55421      3.27871        -0.004106      0.001790      0.000161
      0.52253      0.40081      1.20791         0.002641      0.000698     -0.000200
     -0.36816      5.09755      1.20680        -0.000459      0.004567      0.000138
      2.86812      1.38923      1.20757        -0.002395      0.001624     -0.000109
      1.26901      3.29809      1.20718         0.001349      0.002957      0.000027
      2.67067      8.93825      1.20621         0.000746      0.000215     -0.000160
      4.46185      7.05477      1.20623         0.000475     -0.003973      0.000127
      5.25346      2.35323      1.20725        -0.003324     -0.003732     -0.000064
      2.01999      6.09381      1.20647        -0.004196     -0.000156      0.000196
      3.26263      2.81506      3.27942         0.002049      0.001163      0.000019
      4.72896      8.49712      3.27834        -0.001415      0.000015     -0.000127
      0.69020      9.39581      3.27846         0.000255      0.001768     -0.000213
      2.38941      7.51692      3.27850         0.002884     -0.003390      0.000115
      4.89450      0.89098      3.27982         0.001878     -0.000670     -0.000201
      4.02790      5.61008      3.27869         0.002349     -0.003683      0.000181
      3.65170      4.22554      1.20681         0.003208      0.002842      0.000120
      0.36354      7.96551      1.20639        -0.001729      0.000721     -0.000043
      5.66104      3.75405      3.27909         0.001676     -0.000121      0.000045
      1.63073      4.69596      3.27903        -0.001831      0.002166      0.000144
    total drift:                                0.000249     -0.002434      0.000371

  FREE ENERGIE OF THE ION-ELECTRON SYSTEM (eV)
  free  energy   TOTEN  =      -178.82342717 eV

  energy  without entropy=     -178.71036910  energy(sigma->0) =     -178.76689814

 d Force = 0.3243872E-04[ 0.119E-04, 0.530E-04]  d Energy = 0.3385692E-04-0.142E-05
 d Force =-0.1015921E+00[-0.102E+00,-0.101E+00]  d Ewald  =-0.5582470E+00 0.457E+00

 Conjugate gradient step on ions:
 trial-energy change:   -0.000034  1 .order   -0.000043   -0.000078   -0.000007
  (g-gl).g = 0.699E-04      g.g   = 0.693E-04  gl.gl    = 0.280E-03
 g(Force)  = 0.426E-04   g(Stress)= 0.268E-04 ortho     =-0.134E-04
 gamma     =   0.25005
 trial     =   1.18643
 opt step  =   1.30215  (harmonic =   1.30215) maximal distance =0.00097875
 next E    =  -178.823436   (d E  =  -0.00004)

 reached required accuracy - stopping structural energy minimisation