 vasp.5.4.4.18Apr17-6-g9f103f2a35 (build Jul 11 2019 11:52:51) complex

 executed on             LinuxIFC date 2023.11.29  16:54:11

 INCAR:
 POTCAR:    PAW_PBE V 08Apr2002
 POTCAR:    PAW_PBE Fe 06Sep2000
 POTCAR:    PAW_PBE V 08Apr2002
   VRHFIN =V: p6 d4 s1

   TITEL  = PAW_PBE V 08Apr2002
   POMASS =   50.941; ZVAL   =    5.000    mass and valenz
   ENMAX  =  192.543; ENMIN  =  144.408 eV

 POTCAR:    PAW_PBE Fe 06Sep2000
   VRHFIN =Fe:  d7 s1

   TITEL  = PAW_PBE Fe 06Sep2000
   POMASS =   55.847; ZVAL   =    8.000    mass and valenz
   ENMAX  =  267.882; ENMIN  =  200.911 eV

  PAW_PBE V 08Apr2002                   :
  PAW_PBE Fe 06Sep2000                  :

 POSCAR: EA0    10.265  5.095  4.953 90.00 90.00
  positions in direct lattice
 exchange correlation table for  LEXCH =        8
   RHO(1)=    0.500       N(1)  =     2000
   RHO(2)=  100.500       N(2)  =     4000

 ion  position               nearest neighbor table
   1  0.000  0.000  0.250-  12 2.14  11 2.14  13 2.14  10 2.14  18 2.48  18 2.48   8 2.91   9 2.91

   2  0.500  0.500  0.750-  15 2.14  16 2.14  14 2.14  17 2.14   3 2.48   3 2.48   7 2.91   6 2.91

[...]

   4  0.217  0.500  0.250-  17 2.14  11 2.14  12 2.14  14 2.14   6 2.48   6 2.48   8 2.64   8 2.64
                             3 2.91
   5  0.783  0.500  0.250-  16 2.14  10 2.14  13 2.14  15 2.14   7 2.48   7 2.48   9 2.64   9 2.64
                             3 2.91
   6  0.217  0.500  0.750-  12 2.14  11 2.14  14 2.14  17 2.14   4 2.48   4 2.48  19 2.64  19 2.64
                             2 2.91
   7  0.783  0.500  0.750-  13 2.14  10 2.14  15 2.14  16 2.14   5 2.48   5 2.48  20 2.64  20 2.64
                             2 2.91
   8  0.283  0.000  0.250-  14 2.14  17 2.14  12 2.14  11 2.14  19 2.48  19 2.48   4 2.64   4 2.64
                             1 2.91
   9  0.717  0.000  0.250-  15 2.14  16 2.14  13 2.14  10 2.14  20 2.48  20 2.48   5 2.64   5 2.64
                             1 2.91
  10  0.858  0.192  0.000-   7 2.14  20 2.14   5 2.14  18 2.14   9 2.14   1 2.14  13 3.15  13 3.15

[...]

  18  0.000  0.000  0.750-  11 2.14  12 2.14  10 2.14  13 2.14   1 2.48   1 2.48  19 2.91  20 2.91

  19  0.283  0.000  0.750-  11 2.14  17 2.14  14 2.14  12 2.14   8 2.48   8 2.48   6 2.64   6 2.64
                            18 2.91
  20  0.717  0.000  0.750-  10 2.14  16 2.14  15 2.14  13 2.14   9 2.48   9 2.48   7 2.64   7 2.64
                            18 2.91

  LATTYP: Found a simple orthorhombic cell.
 ALAT       =     4.9532360000
 B/A-ratio  =     1.0287050728
 C/A-ratio  =     2.0723472494

  Lattice vectors:

 A1 = (   0.0000000000,   0.0000000000,  -4.9532360000)
 A2 = (   0.0000000000,  -5.0954190000,   0.0000000000)
 A3 = ( -10.2648250000,   0.0000000000,   0.0000000000)

Analysis of symmetry for initial positions (statically):
 Subroutine PRICEL returns:
 Original cell was already a primitive cell.

 Routine SETGRP: Setting up the symmetry group for a
 simple orthorhombic supercell.

 Subroutine GETGRP returns: Found  1 space group operations
 (whereof  1 operations were pure point group operations)
 out of a pool of  8 trial point group operations.

The static configuration has the point symmetry C_1 .

Analysis of symmetry for dynamics (positions and initial velocities):
 Subroutine PRICEL returns:
 Original cell was already a primitive cell.

 Routine SETGRP: Setting up the symmetry group for a
 simple orthorhombic supercell.

 Subroutine GETGRP returns: Found  1 space group operations
 (whereof  1 operations were pure point group operations)
 out of a pool of  8 trial point group operations.

The dynamic configuration has the point symmetry C_1 .

 Subroutine INISYM returns: Found  1 space group operations
 (whereof  1 operations are pure point group operations),
 and found     1 'primitive' translations

 KPOINTS: EA

Automatic generation of k-mesh.
Space group operators:
 irot       det(A)        alpha          n_x          n_y          n_z        tau_x        tau_y        tau_z
    1     1.000000     0.000000     1.000000     0.000000     0.000000     0.000000     0.000000     0.000000

 Subroutine IBZKPT returns following result:

 Found      4 irreducible k-points:

 Following reciprocal coordinates:
            Coordinates               Weight
  0.000000  0.000000  0.000000      1.000000
  0.000000  0.500000  0.000000      1.000000
  0.000000  0.000000  0.333333      2.000000
  0.000000  0.500000  0.333333      2.000000

 Following cartesian coordinates:
            Coordinates               Weight
  0.000000  0.000000  0.000000      1.000000
  0.000000  0.098127  0.000000      1.000000
  0.000000  0.000000  0.067296      2.000000
  0.000000  0.098127  0.067296      2.000000

 SYSTEM =  unknown system
 POSCAR =  EA0    10.265  5.095  4.953 90.00 90.00

 Startparameter for this run:
   NWRITE =      2    write-flag & timer
   PREC   = normal    normal or accurate (medium, high low for compatibility)
   ISTART =      0    job   : 0-new  1-cont  2-samecut
   ICHARG =      2    charge: 1-file 2-atom 10-const
   ISPIN  =      1    spin polarized calculation?
   LNONCOLLINEAR =      F non collinear calculations
   LSORBIT =      F    spin-orbit coupling
   INIWAV =      1    electr: 0-lowe 1-rand  2-diag
   LASPH  =      F    aspherical Exc in radial PAW
   METAGGA=      F    non-selfconsistent MetaGGA calc.

 Electronic Relaxation 1
   ENCUT  =  267.9 eV  19.69 Ry    4.44 a.u.  13.70  6.80  6.61*2*pi/ulx,y,z
   ENINI  =  267.9     initial cutoff
   ENAUG  =  511.4 eV  augmentation charge cutoff
   NELM   =     60;   NELMIN=  2; NELMDL= -5     # of ELM steps
   EDIFF  = 0.1E-04   stopping-criterion for ELM
   LREAL  =      F    real-space projection
   NLSPLINE    = F    spline interpolate recip. space projectors
   LCOMPAT=      F    compatible to vasp.4.4
   GGA_COMPAT  = T    GGA compatible to vasp.4.4-vasp.4.6
   LMAXPAW     = -100 max onsite density
   LMAXMIX     =    2 max onsite mixed and CHGCAR
   VOSKOWN=      0    Vosko Wilk Nusair interpolation
   ROPT   =    0.00000   0.00000
 Ionic relaxation
   EDIFFG = -.1E-01   stopping-criterion for IOM
   NSW    =    500    number of steps for IOM
   NBLOCK =      1;   KBLOCK =    500    inner block; outer block
   IBRION =      2    ionic relax: 0-MD 1-quasi-New 2-CG
   NFREE  =      1    steps in history (QN), initial steepest desc. (CG)
   ISIF   =      3    stress and relaxation
   IWAVPR =     11    prediction:  0-non 1-charg 2-wave 3-comb
   ISYM   =      2    0-nonsym 1-usesym 2-fastsym
   LCORR  =      T    Harris-Foulkes like correction to forces

   POTIM  = 0.5000    time-step for ionic-motion
   TEIN   =    0.0    initial temperature
   TEBEG  =    0.0;   TEEND  =   0.0 temperature during run
   SMASS  =  -3.00    Nose mass-parameter (am)
   estimated Nose-frequenzy (Omega)   =  0.10E-29 period in steps =****** mass=  -0.241E-26a.u.
   SCALEE = 1.0000    scale energy and forces
   NPACO  =    256;   APACO  = 16.0  distance and # of slots for P.C.
   PSTRESS=    0.0 pullay stress

  Mass of Ions in am
   POMASS =  50.94 55.85
  Ionic Valenz
   ZVAL   =   5.00  8.00
  Atomic Wigner-Seitz radii
  virtual crystal weights
   VCA    =   1.00  1.00
   NELECT =     109.0000    total number of electrons
   NUPDOWN=      -1.0000    fix difference up-down

 DOS related values:
   EMIN   =  10.00;   EMAX   =-10.00  energy-range for DOS
   EFERMI =   0.00
   ISMEAR =     0;   SIGMA  =   0.10  broadening in eV -4-tet -1-fermi 0-gaus

 Electronic relaxation 2 (details)
   IALGO  =     38    algorithm
   LDIAG  =      T    sub-space diagonalisation (order eigenvalues)
   LSUBROT=      F    optimize rotation matrix (better conditioning)
   TURBO    =      0    0=normal 1=particle mesh
   IRESTART =      0    0=no restart 2=restart with 2 vectors
   NREBOOT  =      0    no. of reboots
   NMIN     =      0    reboot dimension
   EREF     =   0.00    reference energy to select bands
   IMIX   =      4    mixing-type and parameters
     AMIX     =   0.40;   BMIX     =  1.00
     AMIX_MAG =   1.60;   BMIX_MAG =  1.00
     AMIN     =   0.10
     WC   =   100.;   INIMIX=   1;  MIXPRE=   1;  MAXMIX= -45

 Intra band minimization:
   WEIMIN = 0.0010     energy-eigenvalue tresh-hold
   EBREAK =  0.37E-07  absolut break condition
   DEPER  =   0.30     relativ break condition

   TIME   =   0.40     timestep for ELM

  volume/ion in A,a.u.               =      12.95        87.42
  Fermi-wavevector in a.u.,A,eV,Ry     =   1.226715  2.318154 20.474435  1.504829
  Thomas-Fermi vector in A             =   2.361705

 Write flags
   LWAVE        =      F    write WAVECAR
   LDOWNSAMPLE  =      F    k-point downsampling of WAVECAR
   LCHARG       =      F    write CHGCAR
   LVTOT        =      F    write LOCPOT, total local potential
   LVHAR        =      F    write LOCPOT, Hartree potential only
   LELF         =      F    write electronic localiz. function (ELF)
   LORBIT       =      0    0 simple, 1 ext, 2 COOP (PROOUT), +10 PAW based schemes

 Dipole corrections
   LMONO  =      F    monopole corrections only (constant potential shift)
   LDIPOL =      F    correct potential (dipole corrections)
   IDIPOL =      0    1-x, 2-y, 3-z, 4-all directions
   EPSILON=  1.0000000 bulk dielectric constant

 Exchange correlation treatment:
   GGA     =    --    GGA type
   VOSKOWN=      0    Vosko Wilk Nusair interpolation
   LHFCALC =     F    Hartree Fock is set to
   LHFONE  =     F    Hartree Fock one center treatment
   AEXX    =    0.0000 exact exchange contribution

 Linear response parameters
   LEPSILON=     F    determine dielectric tensor
   LRPA    =     F    only Hartree local field effects (RPA)
   LNABLA  =     F    use nabla operator in PAW spheres
   LVEL    =     F    velocity operator in full k-point grid
   LINTERFAST=   F  fast interpolation
   KINTER  =     0    interpolate to denser k-point grid
   CSHIFT  =0.1000    complex shift for real part using Kramers Kronig
   OMEGAMAX=  -1.0    maximum frequency
   DEG_THRESHOLD= 0.2000000E-02 threshold for treating states as degnerate
   RTIME   =   -0.100 relaxation time in fs
  (WPLASMAI=    0.000 imaginary part of plasma frequency in eV, 0.658/RTIME)
   DFIELD  = 0.0000000 0.0000000 0.0000000 field for delta impulse in time

 Orbital magnetization related:
   ORBITALMAG=     F  switch on orbital magnetization
   LCHIMAG   =     F  perturbation theory with respect to B field
   DQ        =  0.001000  dq finite difference perturbation B field
   LLRAUG    =     F  two centre corrections for induced B field

 conjugate gradient relaxation of ions
 charge density and potential will be updated during run
 non-spin polarized calculation
 Variant of blocked Davidson
 Davidson routine will perform the subspace rotation
 perform sub-space diagonalisation
    after iterative eigenvector-optimisation
 modified Broyden-mixing scheme, WC =      100.0
 initial mixing is a Kerker type mixing with AMIX =  0.4000 and BMIX =      1.0000
 Hartree-type preconditioning will be used
 using additional bands           13
 reciprocal scheme for non local part
 use partial core corrections
 calculate Harris-corrections to forces
[...]

[...]

 d Force = 0.3377225E+00[ 0.255E+00, 0.421E+00]  d Energy = 0.7180883E+00-0.380E+00
 d Force =-0.9601168E+01[-0.114E+02,-0.775E+01]  d Ewald  = 0.2106001E+02-0.307E+02

 Conjugate gradient step on ions:
 trial-energy change:   -0.718088  1 .order   -0.711543   -0.799611   -0.623476
  (g-gl).g = 0.100E+01      g.g   = 0.898E+00  gl.gl    = 0.472E+02
 g(Force)  = 0.451E+00   g(Stress)= 0.447E+00 ortho     =-0.102E+00
 gamma     =   0.02116
 trial     =   0.89233
 opt step  =   2.76140  (harmonic =   4.05097) maximal distance =0.12177724
 next E    =  -152.105360   (d E  =  -1.43120)

[...]

 d Force = 0.7310463E-01[-0.382E+00, 0.528E+00]  d Energy = 0.7905124E+00-0.717E+00
 d Force =-0.3328383E+02[-0.423E+02,-0.243E+02]  d Ewald  = 0.3155319E+02-0.648E+02

[...]

 d Force = 0.2100617E+00[ 0.202E+00, 0.218E+00]  d Energy = 0.6102401E+00-0.400E+00
 d Force = 0.9205330E+01[ 0.877E+01, 0.964E+01]  d Ewald  = 0.2140364E+02-0.122E+02

 Conjugate gradient step on ions:
 trial-energy change:   -0.610240  1 .order   -0.610104   -0.599794   -0.620415
  (g-gl).g = 0.910E+00      g.g   = 0.102E+01  gl.gl    = 0.898E+00
 g(Force)  = 0.620E+00   g(Stress)= 0.400E+00 ortho     = 0.149E+00
 gamma     =   1.01354
 trial     =   0.51239
 opt step  =   2.04957  (harmonic =   2.04957) maximal distance =0.15513521
 next E    =  -154.746903   (d E  =  -2.56414)

[...]

 d Force =-0.3512494E+00[-0.531E+00,-0.171E+00]  d Energy = 0.3162587E+00-0.668E+00
 d Force =-0.1093145E+02[-0.184E+02,-0.343E+01]  d Ewald  =-0.8606684E+02 0.751E+02

[...]

 d Force = 0.2482504E+00[ 0.867E-01, 0.410E+00]  d Energy =-0.3679006E+00 0.616E+00
 d Force = 0.1295049E+02[ 0.943E+01, 0.165E+02]  d Ewald  = 0.1080175E+03-0.951E+02

[...]

 d Force = 0.5955208E+00[ 0.632E+00, 0.560E+00]  d Energy =-0.3386022E+00 0.934E+00
 d Force = 0.2055271E+02[ 0.196E+02, 0.215E+02]  d Ewald  = 0.1693799E+03-0.149E+03

[...]

 d Force = 0.2514085E+00[ 0.221E+00, 0.281E+00]  d Energy = 0.5084234E+00-0.257E+00
 d Force = 0.5154953E+01[ 0.459E+01, 0.572E+01]  d Ewald  =-0.3280591E+02 0.380E+02

[...]

 d Force = 0.8081352E-01[-0.308E+00, 0.470E+00]  d Energy = 0.7405724E+00-0.660E+00
 d Force =-0.4804661E+01[-0.101E+02, 0.521E+00]  d Ewald  = 0.4200047E+02-0.468E+02

[...]

 d Force = 0.5876393E-01[ 0.363E-01, 0.813E-01]  d Energy = 0.5475607E-01 0.401E-02
 d Force =-0.1148724E+00[-0.682E+00, 0.452E+00]  d Ewald  =-0.1094080E+02 0.108E+02

[...]

 d Force = 0.3912510E-01[ 0.297E-01, 0.486E-01]  d Energy = 0.4418650E-01-0.506E-02
 d Force =-0.4608732E+01[-0.472E+01,-0.449E+01]  d Ewald  =-0.1542964E+02 0.108E+02

[...]

 d Force = 0.1736297E-02[-0.957E-03, 0.443E-02]  d Energy = 0.2149625E-02-0.413E-03
 d Force =-0.8884089E+00[-0.940E+00,-0.837E+00]  d Ewald  =-0.6921905E+01 0.603E+01

[...]

 d Force = 0.2148247E-04[-0.270E-03, 0.313E-03]  d Energy = 0.6365098E-03-0.615E-03
 d Force = 0.3031632E+00[ 0.298E+00, 0.309E+00]  d Ewald  = 0.2278174E+01-0.198E+01

[...]

 Conjugate gradient step on ions:
 trial-energy change:   -0.001492  1 .order   -0.001461   -0.001811   -0.001112
  (g-gl).g = 0.167E-02      g.g   = 0.206E-02  gl.gl    = 0.920E-02
 g(Force)  = 0.173E-02   g(Stress)= 0.332E-03 ortho     = 0.231E-03
 gamma     =   0.18138
 trial     =   0.86057
 opt step  =   2.22824  (harmonic =   2.22824) maximal distance =0.00879883
 next E    =  -162.641940   (d E  =  -0.00234)

[...]

 d Force = 0.8500508E-03[ 0.484E-04, 0.165E-02]  d Energy = 0.8819497E-03-0.319E-04
 d Force =-0.4755994E+00[-0.489E+00,-0.462E+00]  d Ewald  = 0.1086428E+01-0.156E+01

[...]

 d Force =-0.6192911E-04[-0.907E-04,-0.331E-04]  d Energy = 0.1265607E-03-0.188E-03
 d Force =-0.1769488E-01[-0.184E-01,-0.170E-01]  d Ewald  = 0.1124067E+01-0.114E+01

[...]

 d Force = 0.8888065E-05[ 0.855E-05, 0.922E-05]  d Energy = 0.4891817E-06 0.840E-05
 d Force = 0.1857549E-02[ 0.185E-02, 0.186E-02]  d Ewald  =-0.1142092E+00 0.116E+00

[...]

 d Force =-0.2258664E-04[-0.619E-04, 0.167E-04]  d Energy =-0.3975592E-04 0.172E-04
 d Force = 0.7956908E-01[ 0.788E-01, 0.804E-01]  d Ewald  = 0.2845134E+00-0.205E+00

[...]

 d Force = 0.3618237E-05[ 0.736E-06, 0.650E-05]  d Energy = 0.2311681E-05 0.131E-05
 d Force =-0.1543328E-01[-0.155E-01,-0.154E-01]  d Ewald  =-0.5495535E-01 0.395E-01

[...]

 d Force = 0.3080429E-04[-0.637E-04, 0.125E-03]  d Energy =-0.2585522E-04 0.567E-04
 d Force = 0.6028740E+00[ 0.601E+00, 0.605E+00]  d Ewald  = 0.2103208E+00 0.393E+00

[...]

 d Force = 0.1146206E-04[-0.106E-04, 0.336E-04]  d Energy = 0.3922468E-04-0.278E-04
 d Force =-0.3171485E+00[-0.318E+00,-0.317E+00]  d Ewald  =-0.1103785E+00-0.207E+00

[...]

 d Force = 0.3522871E-04[ 0.282E-04, 0.423E-04]  d Energy = 0.3668761E-04-0.146E-05
 d Force = 0.2337982E+00[ 0.234E+00, 0.234E+00]  d Ewald  = 0.1020558E+01-0.787E+00

 Conjugate gradient step on ions:
 trial-energy change:   -0.000037  1 .order   -0.000032   -0.000085    0.000022
  (g-gl).g = 0.842E-04      g.g   = 0.867E-04  gl.gl    = 0.947E-04
 g(Force)  = 0.344E-04   g(Stress)= 0.522E-04 ortho     =-0.306E-05
 gamma     =   0.88908
 trial     =   1.01005
 opt step  =   0.80491  (harmonic =   0.80491) maximal distance =0.00080074
 next E    =  -162.642396   (d E  =  -0.00003)

[...]

 Broyden mixing:
  rms(total) = 0.25289E-01    rms(broyden)= 0.25153E-01
  rms(prec ) = 0.47311E-01
  weight for this iteration     100.00

[...]

 eigenvalue-minimisations  :  1088
 total energy-change (2. order) : 0.3761377E-03  (-0.1536755E-03)
 number of electron     108.9999259 magnetization
 augmentation part       44.1884881 magnetization

 Broyden mixing:
  rms(total) = 0.30953E-02    rms(broyden)= 0.23259E-02
  rms(prec ) = 0.40804E-02
  weight for this iteration     100.00
  WARNING: grid for Broyden might be to small

 eigenvalues of (default mixing * dielectric matrix)
  average eigenvalue GAMMA=   0.1942
  0.2782  0.1102

[...]

--------------------------------------- Iteration     60(   4)  ---------------------------------------

 eigenvalue-minimisations  :   752
 total energy-change (2. order) :-0.7638407E-05  (-0.9505825E-05)
 number of electron     108.9999259 magnetization
 augmentation part       44.1884881 magnetization

 Free energy of the ion-electron system (eV)
  alpha Z        PSCENC =       550.23682249
  Ewald energy   TEWEN  =     -5073.93210883
  -Hartree energ DENC   =      -830.91223812
  -exchange      EXHF   =         0.00000000
  -V(xc)+E(xc)   XCENC  =      -768.55215753
  PAW double counting   =      8381.60581109    -7578.15058482
  entropy T*S    EENTRO =        -0.11144038
  eigenvalues    EBANDS =       469.68927039
  atomic energy  EATOM  =      4687.48422623
  Solvation  Ediel_sol  =         0.00000000
  free energy    TOTEN  =      -162.64239950 eV

  energy without entropy =     -162.53095911  energy(sigma->0) =     -162.58667930

 average (electrostatic) potential at core
  the test charge radii are     1.2064  1.0103
  (the norm of the test charge is              1.0000)
       1 -39.0474       2 -39.1044       3 -38.8802       4 -39.1869       5 -39.1868
       6 -39.3227       7 -39.3227       8 -38.9158       9 -38.9158      10 -39.2344
      11 -39.2337      12 -39.2350      13 -39.2341      14 -39.2387      15 -39.2401
      16 -39.2383      17 -39.2397      18 -43.0017      19 -43.1391      20 -43.1404

 E-fermi :   6.4631     XC(G=0): -12.4749     alpha+bet :-15.1876

[...]

 k-point     4 :       0.0000    0.5000    0.3333
  band No.  band energies     occupation
      1       1.1088      2.00000
      2       1.6378      2.00000
      3       2.1624      2.00000
      4       2.3752      2.00000
      5       2.5066      2.00000
      6       2.6588      2.00000
      7       2.7215      2.00000
      8       2.8798      2.00000
      9       3.0244      2.00000
     10       3.0548      2.00000
     11       3.1484      2.00000
     12       3.2377      2.00000
     13       3.3307      2.00000
     14       3.3413      2.00000
     15       3.4168      2.00000
     16       3.4855      2.00000
     17       3.5151      2.00000
     18       3.6338      2.00000
     19       3.7761      2.00000
     20       3.7909      2.00000
     21       3.9562      2.00000
     22       3.9678      2.00000
     23       4.0727      2.00000
     24       4.0780      2.00000
     25       4.1919      2.00000
     26       4.3009      2.00000
     27       4.3484      2.00000
     28       4.3508      2.00000
     29       4.3852      2.00000
     30       4.4417      2.00000
     31       4.5906      2.00000
     32       4.6677      2.00000
     33       4.7227      2.00000
     34       4.7557      2.00000
     35       4.7712      2.00000
     36       4.8636      2.00000
     37       4.9152      2.00000
     38       5.1542      2.00000
     39       5.2900      2.00000
     40       5.3239      2.00000
     41       5.3786      2.00000
     42       5.4197      2.00000
     43       5.4294      2.00000
     44       5.5476      2.00000
     45       5.5780      2.00000
     46       5.6689      2.00000
     47       5.8776      2.00000
     48       5.9190      2.00000
     49       6.0005      2.00000
     50       6.0078      2.00000
     51       6.1115      2.00000
     52       6.2973      1.98093
     53       6.3422      1.91264
     54       6.4092      1.55391
     55       6.5027      0.57532
     56       6.5650      0.14927
     57       6.6575      0.00598
     58       6.7084      0.00052
     59       6.8466      0.00000
     60       6.9409      0.00000
     61       7.0331      0.00000
     62       7.0447      0.00000
     63       7.0873      0.00000
     64       7.2434      0.00000
     65       7.4063      0.00000
     66       7.4710      0.00000
     67       7.5362      0.00000
     68       7.5501      0.00000

 soft charge-density along one line, spin component           1
         0         1         2         3         4         5         6         7         8         9
 total charge-density along one line

------------------------ aborting loop because EDIFF is reached ----------------------------------------

  FORCE on cell =-STRESS in cart. coord.  units (eV):
  Direction    XX          YY          ZZ          XY          YZ          ZX
  Alpha Z   550.23682   550.23682   550.23682
  Ewald   -1682.43767 -1749.99093 -1641.51661    -0.13053    -0.01165     0.08631
  Hartree   393.39505   247.69828   189.87423    -0.05936    -0.00573     0.06660
  E(xc)    -498.41213  -505.46695  -514.29520    -0.00295    -0.00054     0.00273
  Local      37.42987   256.20160   241.61920     0.16980     0.01953    -0.15539
  n-local  -135.45683  -130.97755  -150.91550    -0.00220    -0.00246     0.01273
  augment   447.35215   450.23895   447.85275     0.00885     0.00149    -0.00938
  Kinetic   887.98000   882.12900   877.27403     0.01413     0.00242    -0.00006
  Fock        0.00000     0.00000     0.00000     0.00000     0.00000     0.00000
  Total       0.08727     0.06923     0.12972    -0.00225     0.00305     0.00354
  in kB       0.53751     0.42643     0.79903    -0.01385     0.01881     0.02181

 VOLUME and BASIS-vectors are now :
  energy-cutoff  :      267.88
  volume of cell :      260.12
      direct lattice vectors                 reciprocal lattice vectors
     7.420537110 -0.000544144  0.000807236     0.134761137  0.000008646 -0.000013448
    -0.000328688  5.122839643 -0.000034878     0.000014314  0.195204237  0.000000696
     0.000682819 -0.000024438  6.842579751    -0.000015898  0.000000994  0.146143713

  length of vectors
     7.420537174  5.122839654  6.842579785     0.134761138  0.195204238  0.146143714

 FORCES acting on ions
    electron-ion (+dipol)            ewald-force                    non-local-force                 convergence-correction
   -.706E-02 -.333E-01 -.280E-01   0.493E-02 0.436E-01 0.293E-01   0.641E-04 -.741E-02 -.477E-02   0.217E-02 -.156E-03 0.336E-03
   0.253E-02 0.861E-01 -.123E+00   0.323E-02 -.721E-01 0.124E+00   0.251E-03 -.139E-01 0.120E-02   -.555E-02 0.329E-03 -.187E-03
   -.224E-02 -.101E+00 0.393E-01   0.369E-02 0.119E+00 -.380E-01   -.544E-03 -.174E-01 -.344E-02   -.919E-03 0.185E-03 0.795E-04
   0.242E+02 -.196E-01 -.226E-02   -.236E+02 0.124E-01 0.634E-02   -.586E+00 0.695E-02 -.348E-02   0.750E-02 -.697E-04 0.220E-03
   -.242E+02 -.340E-01 -.369E-01   0.236E+02 0.323E-01 0.361E-01   0.586E+00 0.166E-02 0.137E-02   -.663E-02 -.584E-04 -.227E-03
   0.185E+02 0.523E-01 -.124E+00   -.179E+02 -.568E-01 0.128E+00   -.633E+00 0.365E-02 -.206E-02   0.158E-01 -.267E-04 -.409E-03
   -.185E+02 0.892E-01 0.758E-01   0.179E+02 -.843E-01 -.899E-01   0.633E+00 -.667E-02 0.129E-01   -.100E-01 0.171E-03 0.183E-03
   0.372E+02 0.760E-01 0.520E-02   -.382E+02 -.778E-01 0.626E-02   0.987E+00 0.211E-02 -.118E-01   0.609E-02 -.861E-04 0.304E-03
   -.372E+02 0.605E-01 0.457E-01   0.382E+02 -.627E-01 -.577E-01   -.988E+00 0.210E-02 0.166E-01   -.830E-02 -.144E-03 -.825E-03
   -.232E+02 -.440E+02 -.827E+02   0.227E+02 0.416E+02 0.837E+02   0.453E+00 0.239E+01 -.101E+01   -.971E-02 0.753E-02 0.894E-02
   0.232E+02 0.441E+02 -.829E+02   -.228E+02 -.418E+02 0.839E+02   -.445E+00 -.238E+01 -.101E+01   0.176E-01 -.254E-02 0.225E-02
   0.233E+02 -.441E+02 0.828E+02   -.228E+02 0.417E+02 -.838E+02   -.449E+00 0.238E+01 0.102E+01   0.175E-01 0.265E-02 -.244E-02
   -.234E+02 0.442E+02 0.830E+02   0.229E+02 -.418E+02 -.840E+02   0.440E+00 -.237E+01 0.101E+01   -.986E-02 -.761E-02 -.870E-02
   0.196E+02 -.458E+02 -.618E+02   -.194E+02 0.453E+02 0.611E+02   -.247E+00 0.475E+00 0.746E+00   0.774E-03 -.153E-03 -.552E-02
   -.198E+02 0.458E+02 -.620E+02   0.196E+02 -.453E+02 0.612E+02   0.238E+00 -.471E+00 0.738E+00   -.103E-01 -.465E-02 -.226E-03
   -.197E+02 -.459E+02 0.618E+02   0.195E+02 0.454E+02 -.611E+02   0.252E+00 0.469E+00 -.742E+00   -.103E-01 0.437E-02 0.288E-03
   0.199E+02 0.458E+02 0.620E+02   -.197E+02 -.454E+02 -.612E+02   -.241E+00 -.467E+00 -.735E+00   0.694E-03 0.119E-03 0.551E-02
   -.569E-03 -.135E+00 -.218E+00   -.164E-01 0.162E+00 0.224E+00   -.216E-03 -.280E-01 -.610E-03   0.155E-01 0.744E-03 -.173E-02
   0.390E+02 -.568E-01 -.229E+00   -.396E+02 0.620E-01 0.217E+00   0.529E+00 -.639E-02 0.159E-01   0.229E-01 0.103E-03 -.156E-02
   -.390E+02 -.875E-01 0.280E+00   0.396E+02 0.819E-01 -.257E+00   -.529E+00 0.184E-02 -.364E-01   -.395E-01 0.622E-03 0.434E-02
   0.468E-02 0.268E-01 0.548E-02   0.355E-13 -.153E-14 -.281E-13   -.257E-03 -.282E-01 -.511E-02   -.453E-02 0.132E-02 0.633E-03

 POSITION                                       TOTAL-FORCE (eV/Angst)
      0.00104      0.00201      1.71073         0.000115      0.002664     -0.003138
      3.71139      2.56203      5.13349         0.000475      0.000432      0.001644
      3.71112      2.56207      1.71130        -0.000009      0.001236     -0.002093
      1.19985      2.56158      1.71099         0.006468     -0.000287      0.000765
      6.22235      2.56134      1.71219        -0.005940     -0.000153      0.000259
      1.19565      2.56154      5.13391         0.001129     -0.000823      0.000868
      6.22717      2.56071      5.13286        -0.001207     -0.001623     -0.001040
      2.49565      0.00053      1.71140        -0.009480      0.000197     -0.000079
      4.92699      0.00003      1.71356         0.008901     -0.000236      0.003754
      6.26743      1.09483     -0.11690        -0.008987      0.001918     -0.003236
      1.15148      4.02901     -0.11694         0.003227     -0.002697     -0.000163
      1.15303      1.09544      3.54110         0.002102      0.000077      0.002261
      6.27239      4.02850      3.54096         0.003452     -0.000650      0.003021
      3.09046      1.22684     -0.01014         0.000220     -0.001032      0.002178
      4.33556      3.89743     -0.01057         0.006079      0.003351      0.000396
      4.33106      1.22773      3.43401        -0.004766      0.003205     -0.001363
      3.08738      3.89617      3.43431        -0.001711     -0.000077      0.000079
      0.00139      0.00005      5.13342        -0.001608     -0.001213      0.003399
      2.48138      0.00016      5.13411         0.001364     -0.001082      0.001422
      4.94184     -0.00173      5.12975         0.000176     -0.003208     -0.008933
    total drift:                               -0.000101     -0.000090      0.001006

  FREE ENERGIE OF THE ION-ELECTRON SYSTEM (eV)
  free  energy   TOTEN  =      -162.64239950 eV

  energy  without entropy=     -162.53095911  energy(sigma->0) =     -162.58667930

 d Force =-0.5128765E-05[-0.453E-05,-0.572E-05]  d Energy = 0.1087070E-05-0.622E-05
 d Force =-0.4746808E-01[-0.475E-01,-0.475E-01]  d Ewald  =-0.2072698E+00 0.160E+00

 reached required accuracy - stopping structural energy minimisation